*HEADING
(b) HGO anisotropic skin + pretension - 3D quarter model (C3D8R)
Fibers +-gamma about x-axis; x=0,y=0 symmetry planes
Units: mm, N, MPa, tonne, s
*NODE
1, 0.00000, 0.00000, 0.00000
2, 0.12500, 0.00000, 0.00000
3, 0.25000, 0.00000, 0.00000
4, 0.37500, 0.00000, 0.00000
5, 0.50000, 0.00000, 0.00000
6, 0.62500, 0.00000, 0.00000
7, 0.75000, 0.00000, 0.00000
8, 0.87500, 0.00000, 0.00000
9, 1.00000, 0.00000, 0.00000
10, 1.12500, 0.00000, 0.00000
11, 1.25000, 0.00000, 0.00000
12, 1.37500, 0.00000, 0.00000
13, 1.50000, 0.00000, 0.00000
101, 0.00000, 0.12500, 0.00000
102, 0.12500, 0.12500, 0.00000
103, 0.25000, 0.12500, 0.00000
104, 0.37500, 0.12500, 0.00000
105, 0.50000, 0.12500, 0.00000
106, 0.62500, 0.12500, 0.00000
107, 0.75000, 0.12500, 0.00000
108, 0.87500, 0.12500, 0.00000
109, 1.00000, 0.12500, 0.00000
110, 1.12500, 0.12500, 0.00000
111, 1.25000, 0.12500, 0.00000
112, 1.37500, 0.12500, 0.00000
113, 1.50000, 0.12500, 0.00000
201, 0.00000, 0.25000, 0.00000
202, 0.12500, 0.25000, 0.00000
203, 0.25000, 0.25000, 0.00000
204, 0.37500, 0.25000, 0.00000
205, 0.50000, 0.25000, 0.00000
206, 0.62500, 0.25000, 0.00000
207, 0.75000, 0.25000, 0.00000
208, 0.87500, 0.25000, 0.00000
209, 1.00000, 0.25000, 0.00000
210, 1.12500, 0.25000, 0.00000
211, 1.25000, 0.25000, 0.00000
212, 1.37500, 0.25000, 0.00000
213, 1.50000, 0.25000, 0.00000
301, 0.00000, 0.37500, 0.00000
302, 0.12500, 0.37500, 0.00000
303, 0.25000, 0.37500, 0.00000
304, 0.37500, 0.37500, 0.00000
305, 0.50000, 0.37500, 0.00000
306, 0.62500, 0.37500, 0.00000
307, 0.75000, 0.37500, 0.00000
308, 0.87500, 0.37500, 0.00000
309, 1.00000, 0.37500, 0.00000
310, 1.12500, 0.37500, 0.00000
311, 1.25000, 0.37500, 0.00000
312, 1.37500, 0.37500, 0.00000
313, 1.50000, 0.37500, 0.00000
401, 0.00000, 0.50000, 0.00000
402, 0.12500, 0.50000, 0.00000
403, 0.25000, 0.50000, 0.00000
404, 0.37500, 0.50000, 0.00000
405, 0.50000, 0.50000, 0.00000
406, 0.62500, 0.50000, 0.00000
407, 0.75000, 0.50000, 0.00000
408, 0.87500, 0.50000, 0.00000
409, 1.00000, 0.50000, 0.00000
410, 1.12500, 0.50000, 0.00000
411, 1.25000, 0.50000, 0.00000
412, 1.37500, 0.50000, 0.00000
413, 1.50000, 0.50000, 0.00000
501, 0.00000, 0.62500, 0.00000
502, 0.12500, 0.62500, 0.00000
503, 0.25000, 0.62500, 0.00000
504, 0.37500, 0.62500, 0.00000
505, 0.50000, 0.62500, 0.00000
506, 0.62500, 0.62500, 0.00000
507, 0.75000, 0.62500, 0.00000
508, 0.87500, 0.62500, 0.00000
509, 1.00000, 0.62500, 0.00000
510, 1.12500, 0.62500, 0.00000
511, 1.25000, 0.62500, 0.00000
512, 1.37500, 0.62500, 0.00000
513, 1.50000, 0.62500, 0.00000
601, 0.00000, 0.75000, 0.00000
602, 0.12500, 0.75000, 0.00000
603, 0.25000, 0.75000, 0.00000
604, 0.37500, 0.75000, 0.00000
605, 0.50000, 0.75000, 0.00000
606, 0.62500, 0.75000, 0.00000
607, 0.75000, 0.75000, 0.00000
608, 0.87500, 0.75000, 0.00000
609, 1.00000, 0.75000, 0.00000
610, 1.12500, 0.75000, 0.00000
611, 1.25000, 0.75000, 0.00000
612, 1.37500, 0.75000, 0.00000
613, 1.50000, 0.75000, 0.00000
701, 0.00000, 0.87500, 0.00000
702, 0.12500, 0.87500, 0.00000
703, 0.25000, 0.87500, 0.00000
704, 0.37500, 0.87500, 0.00000
705, 0.50000, 0.87500, 0.00000
706, 0.62500, 0.87500, 0.00000
707, 0.75000, 0.87500, 0.00000
708, 0.87500, 0.87500, 0.00000
709, 1.00000, 0.87500, 0.00000
710, 1.12500, 0.87500, 0.00000
711, 1.25000, 0.87500, 0.00000
712, 1.37500, 0.87500, 0.00000
713, 1.50000, 0.87500, 0.00000
801, 0.00000, 1.00000, 0.00000
802, 0.12500, 1.00000, 0.00000
803, 0.25000, 1.00000, 0.00000
804, 0.37500, 1.00000, 0.00000
805, 0.50000, 1.00000, 0.00000
806, 0.62500, 1.00000, 0.00000
807, 0.75000, 1.00000, 0.00000
808, 0.87500, 1.00000, 0.00000
809, 1.00000, 1.00000, 0.00000
810, 1.12500, 1.00000, 0.00000
811, 1.25000, 1.00000, 0.00000
812, 1.37500, 1.00000, 0.00000
813, 1.50000, 1.00000, 0.00000
901, 0.00000, 1.12500, 0.00000
902, 0.12500, 1.12500, 0.00000
903, 0.25000, 1.12500, 0.00000
904, 0.37500, 1.12500, 0.00000
905, 0.50000, 1.12500, 0.00000
906, 0.62500, 1.12500, 0.00000
907, 0.75000, 1.12500, 0.00000
908, 0.87500, 1.12500, 0.00000
909, 1.00000, 1.12500, 0.00000
910, 1.12500, 1.12500, 0.00000
911, 1.25000, 1.12500, 0.00000
912, 1.37500, 1.12500, 0.00000
913, 1.50000, 1.12500, 0.00000
1001, 0.00000, 1.25000, 0.00000
1002, 0.12500, 1.25000, 0.00000
1003, 0.25000, 1.25000, 0.00000
1004, 0.37500, 1.25000, 0.00000
1005, 0.50000, 1.25000, 0.00000
1006, 0.62500, 1.25000, 0.00000
1007, 0.75000, 1.25000, 0.00000
1008, 0.87500, 1.25000, 0.00000
1009, 1.00000, 1.25000, 0.00000
1010, 1.12500, 1.25000, 0.00000
1011, 1.25000, 1.25000, 0.00000
1012, 1.37500, 1.25000, 0.00000
1013, 1.50000, 1.25000, 0.00000
1101, 0.00000, 1.37500, 0.00000
1102, 0.12500, 1.37500, 0.00000
1103, 0.25000, 1.37500, 0.00000
1104, 0.37500, 1.37500, 0.00000
1105, 0.50000, 1.37500, 0.00000
1106, 0.62500, 1.37500, 0.00000
1107, 0.75000, 1.37500, 0.00000
1108, 0.87500, 1.37500, 0.00000
1109, 1.00000, 1.37500, 0.00000
1110, 1.12500, 1.37500, 0.00000
1111, 1.25000, 1.37500, 0.00000
1112, 1.37500, 1.37500, 0.00000
1113, 1.50000, 1.37500, 0.00000
1201, 0.00000, 1.50000, 0.00000
1202, 0.12500, 1.50000, 0.00000
1203, 0.25000, 1.50000, 0.00000
1204, 0.37500, 1.50000, 0.00000
1205, 0.50000, 1.50000, 0.00000
1206, 0.62500, 1.50000, 0.00000
1207, 0.75000, 1.50000, 0.00000
1208, 0.87500, 1.50000, 0.00000
1209, 1.00000, 1.50000, 0.00000
1210, 1.12500, 1.50000, 0.00000
1211, 1.25000, 1.50000, 0.00000
1212, 1.37500, 1.50000, 0.00000
1213, 1.50000, 1.50000, 0.00000
10001, 0.00000, 0.00000, 0.12000
10002, 0.12500, 0.00000, 0.12000
10003, 0.25000, 0.00000, 0.12000
10004, 0.37500, 0.00000, 0.12000
10005, 0.50000, 0.00000, 0.12000
10006, 0.62500, 0.00000, 0.12000
10007, 0.75000, 0.00000, 0.12000
10008, 0.87500, 0.00000, 0.12000
10009, 1.00000, 0.00000, 0.12000
10010, 1.12500, 0.00000, 0.12000
10011, 1.25000, 0.00000, 0.12000
10012, 1.37500, 0.00000, 0.12000
10013, 1.50000, 0.00000, 0.12000
10101, 0.00000, 0.12500, 0.12000
10102, 0.12500, 0.12500, 0.12000
10103, 0.25000, 0.12500, 0.12000
10104, 0.37500, 0.12500, 0.12000
10105, 0.50000, 0.12500, 0.12000
10106, 0.62500, 0.12500, 0.12000
10107, 0.75000, 0.12500, 0.12000
10108, 0.87500, 0.12500, 0.12000
10109, 1.00000, 0.12500, 0.12000
10110, 1.12500, 0.12500, 0.12000
10111, 1.25000, 0.12500, 0.12000
10112, 1.37500, 0.12500, 0.12000
10113, 1.50000, 0.12500, 0.12000
10201, 0.00000, 0.25000, 0.12000
10202, 0.12500, 0.25000, 0.12000
10203, 0.25000, 0.25000, 0.12000
10204, 0.37500, 0.25000, 0.12000
10205, 0.50000, 0.25000, 0.12000
10206, 0.62500, 0.25000, 0.12000
10207, 0.75000, 0.25000, 0.12000
10208, 0.87500, 0.25000, 0.12000
10209, 1.00000, 0.25000, 0.12000
10210, 1.12500, 0.25000, 0.12000
10211, 1.25000, 0.25000, 0.12000
10212, 1.37500, 0.25000, 0.12000
10213, 1.50000, 0.25000, 0.12000
10301, 0.00000, 0.37500, 0.12000
10302, 0.12500, 0.37500, 0.12000
10303, 0.25000, 0.37500, 0.12000
10304, 0.37500, 0.37500, 0.12000
10305, 0.50000, 0.37500, 0.12000
10306, 0.62500, 0.37500, 0.12000
10307, 0.75000, 0.37500, 0.12000
10308, 0.87500, 0.37500, 0.12000
10309, 1.00000, 0.37500, 0.12000
10310, 1.12500, 0.37500, 0.12000
10311, 1.25000, 0.37500, 0.12000
10312, 1.37500, 0.37500, 0.12000
10313, 1.50000, 0.37500, 0.12000
10401, 0.00000, 0.50000, 0.12000
10402, 0.12500, 0.50000, 0.12000
10403, 0.25000, 0.50000, 0.12000
10404, 0.37500, 0.50000, 0.12000
10405, 0.50000, 0.50000, 0.12000
10406, 0.62500, 0.50000, 0.12000
10407, 0.75000, 0.50000, 0.12000
10408, 0.87500, 0.50000, 0.12000
10409, 1.00000, 0.50000, 0.12000
10410, 1.12500, 0.50000, 0.12000
10411, 1.25000, 0.50000, 0.12000
10412, 1.37500, 0.50000, 0.12000
10413, 1.50000, 0.50000, 0.12000
10501, 0.00000, 0.62500, 0.12000
10502, 0.12500, 0.62500, 0.12000
10503, 0.25000, 0.62500, 0.12000
10504, 0.37500, 0.62500, 0.12000
10505, 0.50000, 0.62500, 0.12000
10506, 0.62500, 0.62500, 0.12000
10507, 0.75000, 0.62500, 0.12000
10508, 0.87500, 0.62500, 0.12000
10509, 1.00000, 0.62500, 0.12000
10510, 1.12500, 0.62500, 0.12000
10511, 1.25000, 0.62500, 0.12000
10512, 1.37500, 0.62500, 0.12000
10513, 1.50000, 0.62500, 0.12000
10601, 0.00000, 0.75000, 0.12000
10602, 0.12500, 0.75000, 0.12000
10603, 0.25000, 0.75000, 0.12000
10604, 0.37500, 0.75000, 0.12000
10605, 0.50000, 0.75000, 0.12000
10606, 0.62500, 0.75000, 0.12000
10607, 0.75000, 0.75000, 0.12000
10608, 0.87500, 0.75000, 0.12000
10609, 1.00000, 0.75000, 0.12000
10610, 1.12500, 0.75000, 0.12000
10611, 1.25000, 0.75000, 0.12000
10612, 1.37500, 0.75000, 0.12000
10613, 1.50000, 0.75000, 0.12000
10701, 0.00000, 0.87500, 0.12000
10702, 0.12500, 0.87500, 0.12000
10703, 0.25000, 0.87500, 0.12000
10704, 0.37500, 0.87500, 0.12000
10705, 0.50000, 0.87500, 0.12000
10706, 0.62500, 0.87500, 0.12000
10707, 0.75000, 0.87500, 0.12000
10708, 0.87500, 0.87500, 0.12000
10709, 1.00000, 0.87500, 0.12000
10710, 1.12500, 0.87500, 0.12000
10711, 1.25000, 0.87500, 0.12000
10712, 1.37500, 0.87500, 0.12000
10713, 1.50000, 0.87500, 0.12000
10801, 0.00000, 1.00000, 0.12000
10802, 0.12500, 1.00000, 0.12000
10803, 0.25000, 1.00000, 0.12000
10804, 0.37500, 1.00000, 0.12000
10805, 0.50000, 1.00000, 0.12000
10806, 0.62500, 1.00000, 0.12000
10807, 0.75000, 1.00000, 0.12000
10808, 0.87500, 1.00000, 0.12000
10809, 1.00000, 1.00000, 0.12000
10810, 1.12500, 1.00000, 0.12000
10811, 1.25000, 1.00000, 0.12000
10812, 1.37500, 1.00000, 0.12000
10813, 1.50000, 1.00000, 0.12000
10901, 0.00000, 1.12500, 0.12000
10902, 0.12500, 1.12500, 0.12000
10903, 0.25000, 1.12500, 0.12000
10904, 0.37500, 1.12500, 0.12000
10905, 0.50000, 1.12500, 0.12000
10906, 0.62500, 1.12500, 0.12000
10907, 0.75000, 1.12500, 0.12000
10908, 0.87500, 1.12500, 0.12000
10909, 1.00000, 1.12500, 0.12000
10910, 1.12500, 1.12500, 0.12000
10911, 1.25000, 1.12500, 0.12000
10912, 1.37500, 1.12500, 0.12000
10913, 1.50000, 1.12500, 0.12000
11001, 0.00000, 1.25000, 0.12000
11002, 0.12500, 1.25000, 0.12000
11003, 0.25000, 1.25000, 0.12000
11004, 0.37500, 1.25000, 0.12000
11005, 0.50000, 1.25000, 0.12000
11006, 0.62500, 1.25000, 0.12000
11007, 0.75000, 1.25000, 0.12000
11008, 0.87500, 1.25000, 0.12000
11009, 1.00000, 1.25000, 0.12000
11010, 1.12500, 1.25000, 0.12000
11011, 1.25000, 1.25000, 0.12000
11012, 1.37500, 1.25000, 0.12000
11013, 1.50000, 1.25000, 0.12000
11101, 0.00000, 1.37500, 0.12000
11102, 0.12500, 1.37500, 0.12000
11103, 0.25000, 1.37500, 0.12000
11104, 0.37500, 1.37500, 0.12000
11105, 0.50000, 1.37500, 0.12000
11106, 0.62500, 1.37500, 0.12000
11107, 0.75000, 1.37500, 0.12000
11108, 0.87500, 1.37500, 0.12000
11109, 1.00000, 1.37500, 0.12000
11110, 1.12500, 1.37500, 0.12000
11111, 1.25000, 1.37500, 0.12000
11112, 1.37500, 1.37500, 0.12000
11113, 1.50000, 1.37500, 0.12000
11201, 0.00000, 1.50000, 0.12000
11202, 0.12500, 1.50000, 0.12000
11203, 0.25000, 1.50000, 0.12000
11204, 0.37500, 1.50000, 0.12000
11205, 0.50000, 1.50000, 0.12000
11206, 0.62500, 1.50000, 0.12000
11207, 0.75000, 1.50000, 0.12000
11208, 0.87500, 1.50000, 0.12000
11209, 1.00000, 1.50000, 0.12000
11210, 1.12500, 1.50000, 0.12000
11211, 1.25000, 1.50000, 0.12000
11212, 1.37500, 1.50000, 0.12000
11213, 1.50000, 1.50000, 0.12000
20001, 0.00000, 0.00000, 0.24000
20002, 0.12500, 0.00000, 0.24000
20003, 0.25000, 0.00000, 0.24000
20004, 0.37500, 0.00000, 0.24000
20005, 0.50000, 0.00000, 0.24000
20006, 0.62500, 0.00000, 0.24000
20007, 0.75000, 0.00000, 0.24000
20008, 0.87500, 0.00000, 0.24000
20009, 1.00000, 0.00000, 0.24000
20010, 1.12500, 0.00000, 0.24000
20011, 1.25000, 0.00000, 0.24000
20012, 1.37500, 0.00000, 0.24000
20013, 1.50000, 0.00000, 0.24000
20101, 0.00000, 0.12500, 0.24000
20102, 0.12500, 0.12500, 0.24000
20103, 0.25000, 0.12500, 0.24000
20104, 0.37500, 0.12500, 0.24000
20105, 0.50000, 0.12500, 0.24000
20106, 0.62500, 0.12500, 0.24000
20107, 0.75000, 0.12500, 0.24000
20108, 0.87500, 0.12500, 0.24000
20109, 1.00000, 0.12500, 0.24000
20110, 1.12500, 0.12500, 0.24000
20111, 1.25000, 0.12500, 0.24000
20112, 1.37500, 0.12500, 0.24000
20113, 1.50000, 0.12500, 0.24000
20201, 0.00000, 0.25000, 0.24000
20202, 0.12500, 0.25000, 0.24000
20203, 0.25000, 0.25000, 0.24000
20204, 0.37500, 0.25000, 0.24000
20205, 0.50000, 0.25000, 0.24000
20206, 0.62500, 0.25000, 0.24000
20207, 0.75000, 0.25000, 0.24000
20208, 0.87500, 0.25000, 0.24000
20209, 1.00000, 0.25000, 0.24000
20210, 1.12500, 0.25000, 0.24000
20211, 1.25000, 0.25000, 0.24000
20212, 1.37500, 0.25000, 0.24000
20213, 1.50000, 0.25000, 0.24000
20301, 0.00000, 0.37500, 0.24000
20302, 0.12500, 0.37500, 0.24000
20303, 0.25000, 0.37500, 0.24000
20304, 0.37500, 0.37500, 0.24000
20305, 0.50000, 0.37500, 0.24000
20306, 0.62500, 0.37500, 0.24000
20307, 0.75000, 0.37500, 0.24000
20308, 0.87500, 0.37500, 0.24000
20309, 1.00000, 0.37500, 0.24000
20310, 1.12500, 0.37500, 0.24000
20311, 1.25000, 0.37500, 0.24000
20312, 1.37500, 0.37500, 0.24000
20313, 1.50000, 0.37500, 0.24000
20401, 0.00000, 0.50000, 0.24000
20402, 0.12500, 0.50000, 0.24000
20403, 0.25000, 0.50000, 0.24000
20404, 0.37500, 0.50000, 0.24000
20405, 0.50000, 0.50000, 0.24000
20406, 0.62500, 0.50000, 0.24000
20407, 0.75000, 0.50000, 0.24000
20408, 0.87500, 0.50000, 0.24000
20409, 1.00000, 0.50000, 0.24000
20410, 1.12500, 0.50000, 0.24000
20411, 1.25000, 0.50000, 0.24000
20412, 1.37500, 0.50000, 0.24000
20413, 1.50000, 0.50000, 0.24000
20501, 0.00000, 0.62500, 0.24000
20502, 0.12500, 0.62500, 0.24000
20503, 0.25000, 0.62500, 0.24000
20504, 0.37500, 0.62500, 0.24000
20505, 0.50000, 0.62500, 0.24000
20506, 0.62500, 0.62500, 0.24000
20507, 0.75000, 0.62500, 0.24000
20508, 0.87500, 0.62500, 0.24000
20509, 1.00000, 0.62500, 0.24000
20510, 1.12500, 0.62500, 0.24000
20511, 1.25000, 0.62500, 0.24000
20512, 1.37500, 0.62500, 0.24000
20513, 1.50000, 0.62500, 0.24000
20601, 0.00000, 0.75000, 0.24000
20602, 0.12500, 0.75000, 0.24000
20603, 0.25000, 0.75000, 0.24000
20604, 0.37500, 0.75000, 0.24000
20605, 0.50000, 0.75000, 0.24000
20606, 0.62500, 0.75000, 0.24000
20607, 0.75000, 0.75000, 0.24000
20608, 0.87500, 0.75000, 0.24000
20609, 1.00000, 0.75000, 0.24000
20610, 1.12500, 0.75000, 0.24000
20611, 1.25000, 0.75000, 0.24000
20612, 1.37500, 0.75000, 0.24000
20613, 1.50000, 0.75000, 0.24000
20701, 0.00000, 0.87500, 0.24000
20702, 0.12500, 0.87500, 0.24000
20703, 0.25000, 0.87500, 0.24000
20704, 0.37500, 0.87500, 0.24000
20705, 0.50000, 0.87500, 0.24000
20706, 0.62500, 0.87500, 0.24000
20707, 0.75000, 0.87500, 0.24000
20708, 0.87500, 0.87500, 0.24000
20709, 1.00000, 0.87500, 0.24000
20710, 1.12500, 0.87500, 0.24000
20711, 1.25000, 0.87500, 0.24000
20712, 1.37500, 0.87500, 0.24000
20713, 1.50000, 0.87500, 0.24000
20801, 0.00000, 1.00000, 0.24000
20802, 0.12500, 1.00000, 0.24000
20803, 0.25000, 1.00000, 0.24000
20804, 0.37500, 1.00000, 0.24000
20805, 0.50000, 1.00000, 0.24000
20806, 0.62500, 1.00000, 0.24000
20807, 0.75000, 1.00000, 0.24000
20808, 0.87500, 1.00000, 0.24000
20809, 1.00000, 1.00000, 0.24000
20810, 1.12500, 1.00000, 0.24000
20811, 1.25000, 1.00000, 0.24000
20812, 1.37500, 1.00000, 0.24000
20813, 1.50000, 1.00000, 0.24000
20901, 0.00000, 1.12500, 0.24000
20902, 0.12500, 1.12500, 0.24000
20903, 0.25000, 1.12500, 0.24000
20904, 0.37500, 1.12500, 0.24000
20905, 0.50000, 1.12500, 0.24000
20906, 0.62500, 1.12500, 0.24000
20907, 0.75000, 1.12500, 0.24000
20908, 0.87500, 1.12500, 0.24000
20909, 1.00000, 1.12500, 0.24000
20910, 1.12500, 1.12500, 0.24000
20911, 1.25000, 1.12500, 0.24000
20912, 1.37500, 1.12500, 0.24000
20913, 1.50000, 1.12500, 0.24000
21001, 0.00000, 1.25000, 0.24000
21002, 0.12500, 1.25000, 0.24000
21003, 0.25000, 1.25000, 0.24000
21004, 0.37500, 1.25000, 0.24000
21005, 0.50000, 1.25000, 0.24000
21006, 0.62500, 1.25000, 0.24000
21007, 0.75000, 1.25000, 0.24000
21008, 0.87500, 1.25000, 0.24000
21009, 1.00000, 1.25000, 0.24000
21010, 1.12500, 1.25000, 0.24000
21011, 1.25000, 1.25000, 0.24000
21012, 1.37500, 1.25000, 0.24000
21013, 1.50000, 1.25000, 0.24000
21101, 0.00000, 1.37500, 0.24000
21102, 0.12500, 1.37500, 0.24000
21103, 0.25000, 1.37500, 0.24000
21104, 0.37500, 1.37500, 0.24000
21105, 0.50000, 1.37500, 0.24000
21106, 0.62500, 1.37500, 0.24000
21107, 0.75000, 1.37500, 0.24000
21108, 0.87500, 1.37500, 0.24000
21109, 1.00000, 1.37500, 0.24000
21110, 1.12500, 1.37500, 0.24000
21111, 1.25000, 1.37500, 0.24000
21112, 1.37500, 1.37500, 0.24000
21113, 1.50000, 1.37500, 0.24000
21201, 0.00000, 1.50000, 0.24000
21202, 0.12500, 1.50000, 0.24000
21203, 0.25000, 1.50000, 0.24000
21204, 0.37500, 1.50000, 0.24000
21205, 0.50000, 1.50000, 0.24000
21206, 0.62500, 1.50000, 0.24000
21207, 0.75000, 1.50000, 0.24000
21208, 0.87500, 1.50000, 0.24000
21209, 1.00000, 1.50000, 0.24000
21210, 1.12500, 1.50000, 0.24000
21211, 1.25000, 1.50000, 0.24000
21212, 1.37500, 1.50000, 0.24000
21213, 1.50000, 1.50000, 0.24000
30001, 0.00000, 0.00000, 0.36000
30002, 0.12500, 0.00000, 0.36000
30003, 0.25000, 0.00000, 0.36000
30004, 0.37500, 0.00000, 0.36000
30005, 0.50000, 0.00000, 0.36000
30006, 0.62500, 0.00000, 0.36000
30007, 0.75000, 0.00000, 0.36000
30008, 0.87500, 0.00000, 0.36000
30009, 1.00000, 0.00000, 0.36000
30010, 1.12500, 0.00000, 0.36000
30011, 1.25000, 0.00000, 0.36000
30012, 1.37500, 0.00000, 0.36000
30013, 1.50000, 0.00000, 0.36000
30101, 0.00000, 0.12500, 0.36000
30102, 0.12500, 0.12500, 0.36000
30103, 0.25000, 0.12500, 0.36000
30104, 0.37500, 0.12500, 0.36000
30105, 0.50000, 0.12500, 0.36000
30106, 0.62500, 0.12500, 0.36000
30107, 0.75000, 0.12500, 0.36000
30108, 0.87500, 0.12500, 0.36000
30109, 1.00000, 0.12500, 0.36000
30110, 1.12500, 0.12500, 0.36000
30111, 1.25000, 0.12500, 0.36000
30112, 1.37500, 0.12500, 0.36000
30113, 1.50000, 0.12500, 0.36000
30201, 0.00000, 0.25000, 0.36000
30202, 0.12500, 0.25000, 0.36000
30203, 0.25000, 0.25000, 0.36000
30204, 0.37500, 0.25000, 0.36000
30205, 0.50000, 0.25000, 0.36000
30206, 0.62500, 0.25000, 0.36000
30207, 0.75000, 0.25000, 0.36000
30208, 0.87500, 0.25000, 0.36000
30209, 1.00000, 0.25000, 0.36000
30210, 1.12500, 0.25000, 0.36000
30211, 1.25000, 0.25000, 0.36000
30212, 1.37500, 0.25000, 0.36000
30213, 1.50000, 0.25000, 0.36000
30301, 0.00000, 0.37500, 0.36000
30302, 0.12500, 0.37500, 0.36000
30303, 0.25000, 0.37500, 0.36000
30304, 0.37500, 0.37500, 0.36000
30305, 0.50000, 0.37500, 0.36000
30306, 0.62500, 0.37500, 0.36000
30307, 0.75000, 0.37500, 0.36000
30308, 0.87500, 0.37500, 0.36000
30309, 1.00000, 0.37500, 0.36000
30310, 1.12500, 0.37500, 0.36000
30311, 1.25000, 0.37500, 0.36000
30312, 1.37500, 0.37500, 0.36000
30313, 1.50000, 0.37500, 0.36000
30401, 0.00000, 0.50000, 0.36000
30402, 0.12500, 0.50000, 0.36000
30403, 0.25000, 0.50000, 0.36000
30404, 0.37500, 0.50000, 0.36000
30405, 0.50000, 0.50000, 0.36000
30406, 0.62500, 0.50000, 0.36000
30407, 0.75000, 0.50000, 0.36000
30408, 0.87500, 0.50000, 0.36000
30409, 1.00000, 0.50000, 0.36000
30410, 1.12500, 0.50000, 0.36000
30411, 1.25000, 0.50000, 0.36000
30412, 1.37500, 0.50000, 0.36000
30413, 1.50000, 0.50000, 0.36000
30501, 0.00000, 0.62500, 0.36000
30502, 0.12500, 0.62500, 0.36000
30503, 0.25000, 0.62500, 0.36000
30504, 0.37500, 0.62500, 0.36000
30505, 0.50000, 0.62500, 0.36000
30506, 0.62500, 0.62500, 0.36000
30507, 0.75000, 0.62500, 0.36000
30508, 0.87500, 0.62500, 0.36000
30509, 1.00000, 0.62500, 0.36000
30510, 1.12500, 0.62500, 0.36000
30511, 1.25000, 0.62500, 0.36000
30512, 1.37500, 0.62500, 0.36000
30513, 1.50000, 0.62500, 0.36000
30601, 0.00000, 0.75000, 0.36000
30602, 0.12500, 0.75000, 0.36000
30603, 0.25000, 0.75000, 0.36000
30604, 0.37500, 0.75000, 0.36000
30605, 0.50000, 0.75000, 0.36000
30606, 0.62500, 0.75000, 0.36000
30607, 0.75000, 0.75000, 0.36000
30608, 0.87500, 0.75000, 0.36000
30609, 1.00000, 0.75000, 0.36000
30610, 1.12500, 0.75000, 0.36000
30611, 1.25000, 0.75000, 0.36000
30612, 1.37500, 0.75000, 0.36000
30613, 1.50000, 0.75000, 0.36000
30701, 0.00000, 0.87500, 0.36000
30702, 0.12500, 0.87500, 0.36000
30703, 0.25000, 0.87500, 0.36000
30704, 0.37500, 0.87500, 0.36000
30705, 0.50000, 0.87500, 0.36000
30706, 0.62500, 0.87500, 0.36000
30707, 0.75000, 0.87500, 0.36000
30708, 0.87500, 0.87500, 0.36000
30709, 1.00000, 0.87500, 0.36000
30710, 1.12500, 0.87500, 0.36000
30711, 1.25000, 0.87500, 0.36000
30712, 1.37500, 0.87500, 0.36000
30713, 1.50000, 0.87500, 0.36000
30801, 0.00000, 1.00000, 0.36000
30802, 0.12500, 1.00000, 0.36000
30803, 0.25000, 1.00000, 0.36000
30804, 0.37500, 1.00000, 0.36000
30805, 0.50000, 1.00000, 0.36000
30806, 0.62500, 1.00000, 0.36000
30807, 0.75000, 1.00000, 0.36000
30808, 0.87500, 1.00000, 0.36000
30809, 1.00000, 1.00000, 0.36000
30810, 1.12500, 1.00000, 0.36000
30811, 1.25000, 1.00000, 0.36000
30812, 1.37500, 1.00000, 0.36000
30813, 1.50000, 1.00000, 0.36000
30901, 0.00000, 1.12500, 0.36000
30902, 0.12500, 1.12500, 0.36000
30903, 0.25000, 1.12500, 0.36000
30904, 0.37500, 1.12500, 0.36000
30905, 0.50000, 1.12500, 0.36000
30906, 0.62500, 1.12500, 0.36000
30907, 0.75000, 1.12500, 0.36000
30908, 0.87500, 1.12500, 0.36000
30909, 1.00000, 1.12500, 0.36000
30910, 1.12500, 1.12500, 0.36000
30911, 1.25000, 1.12500, 0.36000
30912, 1.37500, 1.12500, 0.36000
30913, 1.50000, 1.12500, 0.36000
31001, 0.00000, 1.25000, 0.36000
31002, 0.12500, 1.25000, 0.36000
31003, 0.25000, 1.25000, 0.36000
31004, 0.37500, 1.25000, 0.36000
31005, 0.50000, 1.25000, 0.36000
31006, 0.62500, 1.25000, 0.36000
31007, 0.75000, 1.25000, 0.36000
31008, 0.87500, 1.25000, 0.36000
31009, 1.00000, 1.25000, 0.36000
31010, 1.12500, 1.25000, 0.36000
31011, 1.25000, 1.25000, 0.36000
31012, 1.37500, 1.25000, 0.36000
31013, 1.50000, 1.25000, 0.36000
31101, 0.00000, 1.37500, 0.36000
31102, 0.12500, 1.37500, 0.36000
31103, 0.25000, 1.37500, 0.36000
31104, 0.37500, 1.37500, 0.36000
31105, 0.50000, 1.37500, 0.36000
31106, 0.62500, 1.37500, 0.36000
31107, 0.75000, 1.37500, 0.36000
31108, 0.87500, 1.37500, 0.36000
31109, 1.00000, 1.37500, 0.36000
31110, 1.12500, 1.37500, 0.36000
31111, 1.25000, 1.37500, 0.36000
31112, 1.37500, 1.37500, 0.36000
31113, 1.50000, 1.37500, 0.36000
31201, 0.00000, 1.50000, 0.36000
31202, 0.12500, 1.50000, 0.36000
31203, 0.25000, 1.50000, 0.36000
31204, 0.37500, 1.50000, 0.36000
31205, 0.50000, 1.50000, 0.36000
31206, 0.62500, 1.50000, 0.36000
31207, 0.75000, 1.50000, 0.36000
31208, 0.87500, 1.50000, 0.36000
31209, 1.00000, 1.50000, 0.36000
31210, 1.12500, 1.50000, 0.36000
31211, 1.25000, 1.50000, 0.36000
31212, 1.37500, 1.50000, 0.36000
31213, 1.50000, 1.50000, 0.36000
40001, 0.00000, 0.00000, 0.48000
40002, 0.12500, 0.00000, 0.48000
40003, 0.25000, 0.00000, 0.48000
40004, 0.37500, 0.00000, 0.48000
40005, 0.50000, 0.00000, 0.48000
40006, 0.62500, 0.00000, 0.48000
40007, 0.75000, 0.00000, 0.48000
40008, 0.87500, 0.00000, 0.48000
40009, 1.00000, 0.00000, 0.48000
40010, 1.12500, 0.00000, 0.48000
40011, 1.25000, 0.00000, 0.48000
40012, 1.37500, 0.00000, 0.48000
40013, 1.50000, 0.00000, 0.48000
40101, 0.00000, 0.12500, 0.48000
40102, 0.12500, 0.12500, 0.48000
40103, 0.25000, 0.12500, 0.48000
40104, 0.37500, 0.12500, 0.48000
40105, 0.50000, 0.12500, 0.48000
40106, 0.62500, 0.12500, 0.48000
40107, 0.75000, 0.12500, 0.48000
40108, 0.87500, 0.12500, 0.48000
40109, 1.00000, 0.12500, 0.48000
40110, 1.12500, 0.12500, 0.48000
40111, 1.25000, 0.12500, 0.48000
40112, 1.37500, 0.12500, 0.48000
40113, 1.50000, 0.12500, 0.48000
40201, 0.00000, 0.25000, 0.48000
40202, 0.12500, 0.25000, 0.48000
40203, 0.25000, 0.25000, 0.48000
40204, 0.37500, 0.25000, 0.48000
40205, 0.50000, 0.25000, 0.48000
40206, 0.62500, 0.25000, 0.48000
40207, 0.75000, 0.25000, 0.48000
40208, 0.87500, 0.25000, 0.48000
40209, 1.00000, 0.25000, 0.48000
40210, 1.12500, 0.25000, 0.48000
40211, 1.25000, 0.25000, 0.48000
40212, 1.37500, 0.25000, 0.48000
40213, 1.50000, 0.25000, 0.48000
40301, 0.00000, 0.37500, 0.48000
40302, 0.12500, 0.37500, 0.48000
40303, 0.25000, 0.37500, 0.48000
40304, 0.37500, 0.37500, 0.48000
40305, 0.50000, 0.37500, 0.48000
40306, 0.62500, 0.37500, 0.48000
40307, 0.75000, 0.37500, 0.48000
40308, 0.87500, 0.37500, 0.48000
40309, 1.00000, 0.37500, 0.48000
40310, 1.12500, 0.37500, 0.48000
40311, 1.25000, 0.37500, 0.48000
40312, 1.37500, 0.37500, 0.48000
40313, 1.50000, 0.37500, 0.48000
40401, 0.00000, 0.50000, 0.48000
40402, 0.12500, 0.50000, 0.48000
40403, 0.25000, 0.50000, 0.48000
40404, 0.37500, 0.50000, 0.48000
40405, 0.50000, 0.50000, 0.48000
40406, 0.62500, 0.50000, 0.48000
40407, 0.75000, 0.50000, 0.48000
40408, 0.87500, 0.50000, 0.48000
40409, 1.00000, 0.50000, 0.48000
40410, 1.12500, 0.50000, 0.48000
40411, 1.25000, 0.50000, 0.48000
40412, 1.37500, 0.50000, 0.48000
40413, 1.50000, 0.50000, 0.48000
40501, 0.00000, 0.62500, 0.48000
40502, 0.12500, 0.62500, 0.48000
40503, 0.25000, 0.62500, 0.48000
40504, 0.37500, 0.62500, 0.48000
40505, 0.50000, 0.62500, 0.48000
40506, 0.62500, 0.62500, 0.48000
40507, 0.75000, 0.62500, 0.48000
40508, 0.87500, 0.62500, 0.48000
40509, 1.00000, 0.62500, 0.48000
40510, 1.12500, 0.62500, 0.48000
40511, 1.25000, 0.62500, 0.48000
40512, 1.37500, 0.62500, 0.48000
40513, 1.50000, 0.62500, 0.48000
40601, 0.00000, 0.75000, 0.48000
40602, 0.12500, 0.75000, 0.48000
40603, 0.25000, 0.75000, 0.48000
40604, 0.37500, 0.75000, 0.48000
40605, 0.50000, 0.75000, 0.48000
40606, 0.62500, 0.75000, 0.48000
40607, 0.75000, 0.75000, 0.48000
40608, 0.87500, 0.75000, 0.48000
40609, 1.00000, 0.75000, 0.48000
40610, 1.12500, 0.75000, 0.48000
40611, 1.25000, 0.75000, 0.48000
40612, 1.37500, 0.75000, 0.48000
40613, 1.50000, 0.75000, 0.48000
40701, 0.00000, 0.87500, 0.48000
40702, 0.12500, 0.87500, 0.48000
40703, 0.25000, 0.87500, 0.48000
40704, 0.37500, 0.87500, 0.48000
40705, 0.50000, 0.87500, 0.48000
40706, 0.62500, 0.87500, 0.48000
40707, 0.75000, 0.87500, 0.48000
40708, 0.87500, 0.87500, 0.48000
40709, 1.00000, 0.87500, 0.48000
40710, 1.12500, 0.87500, 0.48000
40711, 1.25000, 0.87500, 0.48000
40712, 1.37500, 0.87500, 0.48000
40713, 1.50000, 0.87500, 0.48000
40801, 0.00000, 1.00000, 0.48000
40802, 0.12500, 1.00000, 0.48000
40803, 0.25000, 1.00000, 0.48000
40804, 0.37500, 1.00000, 0.48000
40805, 0.50000, 1.00000, 0.48000
40806, 0.62500, 1.00000, 0.48000
40807, 0.75000, 1.00000, 0.48000
40808, 0.87500, 1.00000, 0.48000
40809, 1.00000, 1.00000, 0.48000
40810, 1.12500, 1.00000, 0.48000
40811, 1.25000, 1.00000, 0.48000
40812, 1.37500, 1.00000, 0.48000
40813, 1.50000, 1.00000, 0.48000
40901, 0.00000, 1.12500, 0.48000
40902, 0.12500, 1.12500, 0.48000
40903, 0.25000, 1.12500, 0.48000
40904, 0.37500, 1.12500, 0.48000
40905, 0.50000, 1.12500, 0.48000
40906, 0.62500, 1.12500, 0.48000
40907, 0.75000, 1.12500, 0.48000
40908, 0.87500, 1.12500, 0.48000
40909, 1.00000, 1.12500, 0.48000
40910, 1.12500, 1.12500, 0.48000
40911, 1.25000, 1.12500, 0.48000
40912, 1.37500, 1.12500, 0.48000
40913, 1.50000, 1.12500, 0.48000
41001, 0.00000, 1.25000, 0.48000
41002, 0.12500, 1.25000, 0.48000
41003, 0.25000, 1.25000, 0.48000
41004, 0.37500, 1.25000, 0.48000
41005, 0.50000, 1.25000, 0.48000
41006, 0.62500, 1.25000, 0.48000
41007, 0.75000, 1.25000, 0.48000
41008, 0.87500, 1.25000, 0.48000
41009, 1.00000, 1.25000, 0.48000
41010, 1.12500, 1.25000, 0.48000
41011, 1.25000, 1.25000, 0.48000
41012, 1.37500, 1.25000, 0.48000
41013, 1.50000, 1.25000, 0.48000
41101, 0.00000, 1.37500, 0.48000
41102, 0.12500, 1.37500, 0.48000
41103, 0.25000, 1.37500, 0.48000
41104, 0.37500, 1.37500, 0.48000
41105, 0.50000, 1.37500, 0.48000
41106, 0.62500, 1.37500, 0.48000
41107, 0.75000, 1.37500, 0.48000
41108, 0.87500, 1.37500, 0.48000
41109, 1.00000, 1.37500, 0.48000
41110, 1.12500, 1.37500, 0.48000
41111, 1.25000, 1.37500, 0.48000
41112, 1.37500, 1.37500, 0.48000
41113, 1.50000, 1.37500, 0.48000
41201, 0.00000, 1.50000, 0.48000
41202, 0.12500, 1.50000, 0.48000
41203, 0.25000, 1.50000, 0.48000
41204, 0.37500, 1.50000, 0.48000
41205, 0.50000, 1.50000, 0.48000
41206, 0.62500, 1.50000, 0.48000
41207, 0.75000, 1.50000, 0.48000
41208, 0.87500, 1.50000, 0.48000
41209, 1.00000, 1.50000, 0.48000
41210, 1.12500, 1.50000, 0.48000
41211, 1.25000, 1.50000, 0.48000
41212, 1.37500, 1.50000, 0.48000
41213, 1.50000, 1.50000, 0.48000
50001, 0.00000, 0.00000, 0.60000
50002, 0.12500, 0.00000, 0.60000
50003, 0.25000, 0.00000, 0.60000
50004, 0.37500, 0.00000, 0.60000
50005, 0.50000, 0.00000, 0.60000
50006, 0.62500, 0.00000, 0.60000
50007, 0.75000, 0.00000, 0.60000
50008, 0.87500, 0.00000, 0.60000
50009, 1.00000, 0.00000, 0.60000
50010, 1.12500, 0.00000, 0.60000
50011, 1.25000, 0.00000, 0.60000
50012, 1.37500, 0.00000, 0.60000
50013, 1.50000, 0.00000, 0.60000
50101, 0.00000, 0.12500, 0.60000
50102, 0.12500, 0.12500, 0.60000
50103, 0.25000, 0.12500, 0.60000
50104, 0.37500, 0.12500, 0.60000
50105, 0.50000, 0.12500, 0.60000
50106, 0.62500, 0.12500, 0.60000
50107, 0.75000, 0.12500, 0.60000
50108, 0.87500, 0.12500, 0.60000
50109, 1.00000, 0.12500, 0.60000
50110, 1.12500, 0.12500, 0.60000
50111, 1.25000, 0.12500, 0.60000
50112, 1.37500, 0.12500, 0.60000
50113, 1.50000, 0.12500, 0.60000
50201, 0.00000, 0.25000, 0.60000
50202, 0.12500, 0.25000, 0.60000
50203, 0.25000, 0.25000, 0.60000
50204, 0.37500, 0.25000, 0.60000
50205, 0.50000, 0.25000, 0.60000
50206, 0.62500, 0.25000, 0.60000
50207, 0.75000, 0.25000, 0.60000
50208, 0.87500, 0.25000, 0.60000
50209, 1.00000, 0.25000, 0.60000
50210, 1.12500, 0.25000, 0.60000
50211, 1.25000, 0.25000, 0.60000
50212, 1.37500, 0.25000, 0.60000
50213, 1.50000, 0.25000, 0.60000
50301, 0.00000, 0.37500, 0.60000
50302, 0.12500, 0.37500, 0.60000
50303, 0.25000, 0.37500, 0.60000
50304, 0.37500, 0.37500, 0.60000
50305, 0.50000, 0.37500, 0.60000
50306, 0.62500, 0.37500, 0.60000
50307, 0.75000, 0.37500, 0.60000
50308, 0.87500, 0.37500, 0.60000
50309, 1.00000, 0.37500, 0.60000
50310, 1.12500, 0.37500, 0.60000
50311, 1.25000, 0.37500, 0.60000
50312, 1.37500, 0.37500, 0.60000
50313, 1.50000, 0.37500, 0.60000
50401, 0.00000, 0.50000, 0.60000
50402, 0.12500, 0.50000, 0.60000
50403, 0.25000, 0.50000, 0.60000
50404, 0.37500, 0.50000, 0.60000
50405, 0.50000, 0.50000, 0.60000
50406, 0.62500, 0.50000, 0.60000
50407, 0.75000, 0.50000, 0.60000
50408, 0.87500, 0.50000, 0.60000
50409, 1.00000, 0.50000, 0.60000
50410, 1.12500, 0.50000, 0.60000
50411, 1.25000, 0.50000, 0.60000
50412, 1.37500, 0.50000, 0.60000
50413, 1.50000, 0.50000, 0.60000
50501, 0.00000, 0.62500, 0.60000
50502, 0.12500, 0.62500, 0.60000
50503, 0.25000, 0.62500, 0.60000
50504, 0.37500, 0.62500, 0.60000
50505, 0.50000, 0.62500, 0.60000
50506, 0.62500, 0.62500, 0.60000
50507, 0.75000, 0.62500, 0.60000
50508, 0.87500, 0.62500, 0.60000
50509, 1.00000, 0.62500, 0.60000
50510, 1.12500, 0.62500, 0.60000
50511, 1.25000, 0.62500, 0.60000
50512, 1.37500, 0.62500, 0.60000
50513, 1.50000, 0.62500, 0.60000
50601, 0.00000, 0.75000, 0.60000
50602, 0.12500, 0.75000, 0.60000
50603, 0.25000, 0.75000, 0.60000
50604, 0.37500, 0.75000, 0.60000
50605, 0.50000, 0.75000, 0.60000
50606, 0.62500, 0.75000, 0.60000
50607, 0.75000, 0.75000, 0.60000
50608, 0.87500, 0.75000, 0.60000
50609, 1.00000, 0.75000, 0.60000
50610, 1.12500, 0.75000, 0.60000
50611, 1.25000, 0.75000, 0.60000
50612, 1.37500, 0.75000, 0.60000
50613, 1.50000, 0.75000, 0.60000
50701, 0.00000, 0.87500, 0.60000
50702, 0.12500, 0.87500, 0.60000
50703, 0.25000, 0.87500, 0.60000
50704, 0.37500, 0.87500, 0.60000
50705, 0.50000, 0.87500, 0.60000
50706, 0.62500, 0.87500, 0.60000
50707, 0.75000, 0.87500, 0.60000
50708, 0.87500, 0.87500, 0.60000
50709, 1.00000, 0.87500, 0.60000
50710, 1.12500, 0.87500, 0.60000
50711, 1.25000, 0.87500, 0.60000
50712, 1.37500, 0.87500, 0.60000
50713, 1.50000, 0.87500, 0.60000
50801, 0.00000, 1.00000, 0.60000
50802, 0.12500, 1.00000, 0.60000
50803, 0.25000, 1.00000, 0.60000
50804, 0.37500, 1.00000, 0.60000
50805, 0.50000, 1.00000, 0.60000
50806, 0.62500, 1.00000, 0.60000
50807, 0.75000, 1.00000, 0.60000
50808, 0.87500, 1.00000, 0.60000
50809, 1.00000, 1.00000, 0.60000
50810, 1.12500, 1.00000, 0.60000
50811, 1.25000, 1.00000, 0.60000
50812, 1.37500, 1.00000, 0.60000
50813, 1.50000, 1.00000, 0.60000
50901, 0.00000, 1.12500, 0.60000
50902, 0.12500, 1.12500, 0.60000
50903, 0.25000, 1.12500, 0.60000
50904, 0.37500, 1.12500, 0.60000
50905, 0.50000, 1.12500, 0.60000
50906, 0.62500, 1.12500, 0.60000
50907, 0.75000, 1.12500, 0.60000
50908, 0.87500, 1.12500, 0.60000
50909, 1.00000, 1.12500, 0.60000
50910, 1.12500, 1.12500, 0.60000
50911, 1.25000, 1.12500, 0.60000
50912, 1.37500, 1.12500, 0.60000
50913, 1.50000, 1.12500, 0.60000
51001, 0.00000, 1.25000, 0.60000
51002, 0.12500, 1.25000, 0.60000
51003, 0.25000, 1.25000, 0.60000
51004, 0.37500, 1.25000, 0.60000
51005, 0.50000, 1.25000, 0.60000
51006, 0.62500, 1.25000, 0.60000
51007, 0.75000, 1.25000, 0.60000
51008, 0.87500, 1.25000, 0.60000
51009, 1.00000, 1.25000, 0.60000
51010, 1.12500, 1.25000, 0.60000
51011, 1.25000, 1.25000, 0.60000
51012, 1.37500, 1.25000, 0.60000
51013, 1.50000, 1.25000, 0.60000
51101, 0.00000, 1.37500, 0.60000
51102, 0.12500, 1.37500, 0.60000
51103, 0.25000, 1.37500, 0.60000
51104, 0.37500, 1.37500, 0.60000
51105, 0.50000, 1.37500, 0.60000
51106, 0.62500, 1.37500, 0.60000
51107, 0.75000, 1.37500, 0.60000
51108, 0.87500, 1.37500, 0.60000
51109, 1.00000, 1.37500, 0.60000
51110, 1.12500, 1.37500, 0.60000
51111, 1.25000, 1.37500, 0.60000
51112, 1.37500, 1.37500, 0.60000
51113, 1.50000, 1.37500, 0.60000
51201, 0.00000, 1.50000, 0.60000
51202, 0.12500, 1.50000, 0.60000
51203, 0.25000, 1.50000, 0.60000
51204, 0.37500, 1.50000, 0.60000
51205, 0.50000, 1.50000, 0.60000
51206, 0.62500, 1.50000, 0.60000
51207, 0.75000, 1.50000, 0.60000
51208, 0.87500, 1.50000, 0.60000
51209, 1.00000, 1.50000, 0.60000
51210, 1.12500, 1.50000, 0.60000
51211, 1.25000, 1.50000, 0.60000
51212, 1.37500, 1.50000, 0.60000
51213, 1.50000, 1.50000, 0.60000
60001, 0.00000, 0.00000, 0.72000
60002, 0.12500, 0.00000, 0.72000
60003, 0.25000, 0.00000, 0.72000
60004, 0.37500, 0.00000, 0.72000
60005, 0.50000, 0.00000, 0.72000
60006, 0.62500, 0.00000, 0.72000
60007, 0.75000, 0.00000, 0.72000
60008, 0.87500, 0.00000, 0.72000
60009, 1.00000, 0.00000, 0.72000
60010, 1.12500, 0.00000, 0.72000
60011, 1.25000, 0.00000, 0.72000
60012, 1.37500, 0.00000, 0.72000
60013, 1.50000, 0.00000, 0.72000
60101, 0.00000, 0.12500, 0.72000
60102, 0.12500, 0.12500, 0.72000
60103, 0.25000, 0.12500, 0.72000
60104, 0.37500, 0.12500, 0.72000
60105, 0.50000, 0.12500, 0.72000
60106, 0.62500, 0.12500, 0.72000
60107, 0.75000, 0.12500, 0.72000
60108, 0.87500, 0.12500, 0.72000
60109, 1.00000, 0.12500, 0.72000
60110, 1.12500, 0.12500, 0.72000
60111, 1.25000, 0.12500, 0.72000
60112, 1.37500, 0.12500, 0.72000
60113, 1.50000, 0.12500, 0.72000
60201, 0.00000, 0.25000, 0.72000
60202, 0.12500, 0.25000, 0.72000
60203, 0.25000, 0.25000, 0.72000
60204, 0.37500, 0.25000, 0.72000
60205, 0.50000, 0.25000, 0.72000
60206, 0.62500, 0.25000, 0.72000
60207, 0.75000, 0.25000, 0.72000
60208, 0.87500, 0.25000, 0.72000
60209, 1.00000, 0.25000, 0.72000
60210, 1.12500, 0.25000, 0.72000
60211, 1.25000, 0.25000, 0.72000
60212, 1.37500, 0.25000, 0.72000
60213, 1.50000, 0.25000, 0.72000
60301, 0.00000, 0.37500, 0.72000
60302, 0.12500, 0.37500, 0.72000
60303, 0.25000, 0.37500, 0.72000
60304, 0.37500, 0.37500, 0.72000
60305, 0.50000, 0.37500, 0.72000
60306, 0.62500, 0.37500, 0.72000
60307, 0.75000, 0.37500, 0.72000
60308, 0.87500, 0.37500, 0.72000
60309, 1.00000, 0.37500, 0.72000
60310, 1.12500, 0.37500, 0.72000
60311, 1.25000, 0.37500, 0.72000
60312, 1.37500, 0.37500, 0.72000
60313, 1.50000, 0.37500, 0.72000
60401, 0.00000, 0.50000, 0.72000
60402, 0.12500, 0.50000, 0.72000
60403, 0.25000, 0.50000, 0.72000
60404, 0.37500, 0.50000, 0.72000
60405, 0.50000, 0.50000, 0.72000
60406, 0.62500, 0.50000, 0.72000
60407, 0.75000, 0.50000, 0.72000
60408, 0.87500, 0.50000, 0.72000
60409, 1.00000, 0.50000, 0.72000
60410, 1.12500, 0.50000, 0.72000
60411, 1.25000, 0.50000, 0.72000
60412, 1.37500, 0.50000, 0.72000
60413, 1.50000, 0.50000, 0.72000
60501, 0.00000, 0.62500, 0.72000
60502, 0.12500, 0.62500, 0.72000
60503, 0.25000, 0.62500, 0.72000
60504, 0.37500, 0.62500, 0.72000
60505, 0.50000, 0.62500, 0.72000
60506, 0.62500, 0.62500, 0.72000
60507, 0.75000, 0.62500, 0.72000
60508, 0.87500, 0.62500, 0.72000
60509, 1.00000, 0.62500, 0.72000
60510, 1.12500, 0.62500, 0.72000
60511, 1.25000, 0.62500, 0.72000
60512, 1.37500, 0.62500, 0.72000
60513, 1.50000, 0.62500, 0.72000
60601, 0.00000, 0.75000, 0.72000
60602, 0.12500, 0.75000, 0.72000
60603, 0.25000, 0.75000, 0.72000
60604, 0.37500, 0.75000, 0.72000
60605, 0.50000, 0.75000, 0.72000
60606, 0.62500, 0.75000, 0.72000
60607, 0.75000, 0.75000, 0.72000
60608, 0.87500, 0.75000, 0.72000
60609, 1.00000, 0.75000, 0.72000
60610, 1.12500, 0.75000, 0.72000
60611, 1.25000, 0.75000, 0.72000
60612, 1.37500, 0.75000, 0.72000
60613, 1.50000, 0.75000, 0.72000
60701, 0.00000, 0.87500, 0.72000
60702, 0.12500, 0.87500, 0.72000
60703, 0.25000, 0.87500, 0.72000
60704, 0.37500, 0.87500, 0.72000
60705, 0.50000, 0.87500, 0.72000
60706, 0.62500, 0.87500, 0.72000
60707, 0.75000, 0.87500, 0.72000
60708, 0.87500, 0.87500, 0.72000
60709, 1.00000, 0.87500, 0.72000
60710, 1.12500, 0.87500, 0.72000
60711, 1.25000, 0.87500, 0.72000
60712, 1.37500, 0.87500, 0.72000
60713, 1.50000, 0.87500, 0.72000
60801, 0.00000, 1.00000, 0.72000
60802, 0.12500, 1.00000, 0.72000
60803, 0.25000, 1.00000, 0.72000
60804, 0.37500, 1.00000, 0.72000
60805, 0.50000, 1.00000, 0.72000
60806, 0.62500, 1.00000, 0.72000
60807, 0.75000, 1.00000, 0.72000
60808, 0.87500, 1.00000, 0.72000
60809, 1.00000, 1.00000, 0.72000
60810, 1.12500, 1.00000, 0.72000
60811, 1.25000, 1.00000, 0.72000
60812, 1.37500, 1.00000, 0.72000
60813, 1.50000, 1.00000, 0.72000
60901, 0.00000, 1.12500, 0.72000
60902, 0.12500, 1.12500, 0.72000
60903, 0.25000, 1.12500, 0.72000
60904, 0.37500, 1.12500, 0.72000
60905, 0.50000, 1.12500, 0.72000
60906, 0.62500, 1.12500, 0.72000
60907, 0.75000, 1.12500, 0.72000
60908, 0.87500, 1.12500, 0.72000
60909, 1.00000, 1.12500, 0.72000
60910, 1.12500, 1.12500, 0.72000
60911, 1.25000, 1.12500, 0.72000
60912, 1.37500, 1.12500, 0.72000
60913, 1.50000, 1.12500, 0.72000
61001, 0.00000, 1.25000, 0.72000
61002, 0.12500, 1.25000, 0.72000
61003, 0.25000, 1.25000, 0.72000
61004, 0.37500, 1.25000, 0.72000
61005, 0.50000, 1.25000, 0.72000
61006, 0.62500, 1.25000, 0.72000
61007, 0.75000, 1.25000, 0.72000
61008, 0.87500, 1.25000, 0.72000
61009, 1.00000, 1.25000, 0.72000
61010, 1.12500, 1.25000, 0.72000
61011, 1.25000, 1.25000, 0.72000
61012, 1.37500, 1.25000, 0.72000
61013, 1.50000, 1.25000, 0.72000
61101, 0.00000, 1.37500, 0.72000
61102, 0.12500, 1.37500, 0.72000
61103, 0.25000, 1.37500, 0.72000
61104, 0.37500, 1.37500, 0.72000
61105, 0.50000, 1.37500, 0.72000
61106, 0.62500, 1.37500, 0.72000
61107, 0.75000, 1.37500, 0.72000
61108, 0.87500, 1.37500, 0.72000
61109, 1.00000, 1.37500, 0.72000
61110, 1.12500, 1.37500, 0.72000
61111, 1.25000, 1.37500, 0.72000
61112, 1.37500, 1.37500, 0.72000
61113, 1.50000, 1.37500, 0.72000
61201, 0.00000, 1.50000, 0.72000
61202, 0.12500, 1.50000, 0.72000
61203, 0.25000, 1.50000, 0.72000
61204, 0.37500, 1.50000, 0.72000
61205, 0.50000, 1.50000, 0.72000
61206, 0.62500, 1.50000, 0.72000
61207, 0.75000, 1.50000, 0.72000
61208, 0.87500, 1.50000, 0.72000
61209, 1.00000, 1.50000, 0.72000
61210, 1.12500, 1.50000, 0.72000
61211, 1.25000, 1.50000, 0.72000
61212, 1.37500, 1.50000, 0.72000
61213, 1.50000, 1.50000, 0.72000
70001, 0.00000, 0.00000, 0.84000
70002, 0.12500, 0.00000, 0.84000
70003, 0.25000, 0.00000, 0.84000
70004, 0.37500, 0.00000, 0.84000
70005, 0.50000, 0.00000, 0.84000
70006, 0.62500, 0.00000, 0.84000
70007, 0.75000, 0.00000, 0.84000
70008, 0.87500, 0.00000, 0.84000
70009, 1.00000, 0.00000, 0.84000
70010, 1.12500, 0.00000, 0.84000
70011, 1.25000, 0.00000, 0.84000
70012, 1.37500, 0.00000, 0.84000
70013, 1.50000, 0.00000, 0.84000
70101, 0.00000, 0.12500, 0.84000
70102, 0.12500, 0.12500, 0.84000
70103, 0.25000, 0.12500, 0.84000
70104, 0.37500, 0.12500, 0.84000
70105, 0.50000, 0.12500, 0.84000
70106, 0.62500, 0.12500, 0.84000
70107, 0.75000, 0.12500, 0.84000
70108, 0.87500, 0.12500, 0.84000
70109, 1.00000, 0.12500, 0.84000
70110, 1.12500, 0.12500, 0.84000
70111, 1.25000, 0.12500, 0.84000
70112, 1.37500, 0.12500, 0.84000
70113, 1.50000, 0.12500, 0.84000
70201, 0.00000, 0.25000, 0.84000
70202, 0.12500, 0.25000, 0.84000
70203, 0.25000, 0.25000, 0.84000
70204, 0.37500, 0.25000, 0.84000
70205, 0.50000, 0.25000, 0.84000
70206, 0.62500, 0.25000, 0.84000
70207, 0.75000, 0.25000, 0.84000
70208, 0.87500, 0.25000, 0.84000
70209, 1.00000, 0.25000, 0.84000
70210, 1.12500, 0.25000, 0.84000
70211, 1.25000, 0.25000, 0.84000
70212, 1.37500, 0.25000, 0.84000
70213, 1.50000, 0.25000, 0.84000
70301, 0.00000, 0.37500, 0.84000
70302, 0.12500, 0.37500, 0.84000
70303, 0.25000, 0.37500, 0.84000
70304, 0.37500, 0.37500, 0.84000
70305, 0.50000, 0.37500, 0.84000
70306, 0.62500, 0.37500, 0.84000
70307, 0.75000, 0.37500, 0.84000
70308, 0.87500, 0.37500, 0.84000
70309, 1.00000, 0.37500, 0.84000
70310, 1.12500, 0.37500, 0.84000
70311, 1.25000, 0.37500, 0.84000
70312, 1.37500, 0.37500, 0.84000
70313, 1.50000, 0.37500, 0.84000
70401, 0.00000, 0.50000, 0.84000
70402, 0.12500, 0.50000, 0.84000
70403, 0.25000, 0.50000, 0.84000
70404, 0.37500, 0.50000, 0.84000
70405, 0.50000, 0.50000, 0.84000
70406, 0.62500, 0.50000, 0.84000
70407, 0.75000, 0.50000, 0.84000
70408, 0.87500, 0.50000, 0.84000
70409, 1.00000, 0.50000, 0.84000
70410, 1.12500, 0.50000, 0.84000
70411, 1.25000, 0.50000, 0.84000
70412, 1.37500, 0.50000, 0.84000
70413, 1.50000, 0.50000, 0.84000
70501, 0.00000, 0.62500, 0.84000
70502, 0.12500, 0.62500, 0.84000
70503, 0.25000, 0.62500, 0.84000
70504, 0.37500, 0.62500, 0.84000
70505, 0.50000, 0.62500, 0.84000
70506, 0.62500, 0.62500, 0.84000
70507, 0.75000, 0.62500, 0.84000
70508, 0.87500, 0.62500, 0.84000
70509, 1.00000, 0.62500, 0.84000
70510, 1.12500, 0.62500, 0.84000
70511, 1.25000, 0.62500, 0.84000
70512, 1.37500, 0.62500, 0.84000
70513, 1.50000, 0.62500, 0.84000
70601, 0.00000, 0.75000, 0.84000
70602, 0.12500, 0.75000, 0.84000
70603, 0.25000, 0.75000, 0.84000
70604, 0.37500, 0.75000, 0.84000
70605, 0.50000, 0.75000, 0.84000
70606, 0.62500, 0.75000, 0.84000
70607, 0.75000, 0.75000, 0.84000
70608, 0.87500, 0.75000, 0.84000
70609, 1.00000, 0.75000, 0.84000
70610, 1.12500, 0.75000, 0.84000
70611, 1.25000, 0.75000, 0.84000
70612, 1.37500, 0.75000, 0.84000
70613, 1.50000, 0.75000, 0.84000
70701, 0.00000, 0.87500, 0.84000
70702, 0.12500, 0.87500, 0.84000
70703, 0.25000, 0.87500, 0.84000
70704, 0.37500, 0.87500, 0.84000
70705, 0.50000, 0.87500, 0.84000
70706, 0.62500, 0.87500, 0.84000
70707, 0.75000, 0.87500, 0.84000
70708, 0.87500, 0.87500, 0.84000
70709, 1.00000, 0.87500, 0.84000
70710, 1.12500, 0.87500, 0.84000
70711, 1.25000, 0.87500, 0.84000
70712, 1.37500, 0.87500, 0.84000
70713, 1.50000, 0.87500, 0.84000
70801, 0.00000, 1.00000, 0.84000
70802, 0.12500, 1.00000, 0.84000
70803, 0.25000, 1.00000, 0.84000
70804, 0.37500, 1.00000, 0.84000
70805, 0.50000, 1.00000, 0.84000
70806, 0.62500, 1.00000, 0.84000
70807, 0.75000, 1.00000, 0.84000
70808, 0.87500, 1.00000, 0.84000
70809, 1.00000, 1.00000, 0.84000
70810, 1.12500, 1.00000, 0.84000
70811, 1.25000, 1.00000, 0.84000
70812, 1.37500, 1.00000, 0.84000
70813, 1.50000, 1.00000, 0.84000
70901, 0.00000, 1.12500, 0.84000
70902, 0.12500, 1.12500, 0.84000
70903, 0.25000, 1.12500, 0.84000
70904, 0.37500, 1.12500, 0.84000
70905, 0.50000, 1.12500, 0.84000
70906, 0.62500, 1.12500, 0.84000
70907, 0.75000, 1.12500, 0.84000
70908, 0.87500, 1.12500, 0.84000
70909, 1.00000, 1.12500, 0.84000
70910, 1.12500, 1.12500, 0.84000
70911, 1.25000, 1.12500, 0.84000
70912, 1.37500, 1.12500, 0.84000
70913, 1.50000, 1.12500, 0.84000
71001, 0.00000, 1.25000, 0.84000
71002, 0.12500, 1.25000, 0.84000
71003, 0.25000, 1.25000, 0.84000
71004, 0.37500, 1.25000, 0.84000
71005, 0.50000, 1.25000, 0.84000
71006, 0.62500, 1.25000, 0.84000
71007, 0.75000, 1.25000, 0.84000
71008, 0.87500, 1.25000, 0.84000
71009, 1.00000, 1.25000, 0.84000
71010, 1.12500, 1.25000, 0.84000
71011, 1.25000, 1.25000, 0.84000
71012, 1.37500, 1.25000, 0.84000
71013, 1.50000, 1.25000, 0.84000
71101, 0.00000, 1.37500, 0.84000
71102, 0.12500, 1.37500, 0.84000
71103, 0.25000, 1.37500, 0.84000
71104, 0.37500, 1.37500, 0.84000
71105, 0.50000, 1.37500, 0.84000
71106, 0.62500, 1.37500, 0.84000
71107, 0.75000, 1.37500, 0.84000
71108, 0.87500, 1.37500, 0.84000
71109, 1.00000, 1.37500, 0.84000
71110, 1.12500, 1.37500, 0.84000
71111, 1.25000, 1.37500, 0.84000
71112, 1.37500, 1.37500, 0.84000
71113, 1.50000, 1.37500, 0.84000
71201, 0.00000, 1.50000, 0.84000
71202, 0.12500, 1.50000, 0.84000
71203, 0.25000, 1.50000, 0.84000
71204, 0.37500, 1.50000, 0.84000
71205, 0.50000, 1.50000, 0.84000
71206, 0.62500, 1.50000, 0.84000
71207, 0.75000, 1.50000, 0.84000
71208, 0.87500, 1.50000, 0.84000
71209, 1.00000, 1.50000, 0.84000
71210, 1.12500, 1.50000, 0.84000
71211, 1.25000, 1.50000, 0.84000
71212, 1.37500, 1.50000, 0.84000
71213, 1.50000, 1.50000, 0.84000
80001, 0.00000, 0.00000, 0.96000
80002, 0.12500, 0.00000, 0.96000
80003, 0.25000, 0.00000, 0.96000
80004, 0.37500, 0.00000, 0.96000
80005, 0.50000, 0.00000, 0.96000
80006, 0.62500, 0.00000, 0.96000
80007, 0.75000, 0.00000, 0.96000
80008, 0.87500, 0.00000, 0.96000
80009, 1.00000, 0.00000, 0.96000
80010, 1.12500, 0.00000, 0.96000
80011, 1.25000, 0.00000, 0.96000
80012, 1.37500, 0.00000, 0.96000
80013, 1.50000, 0.00000, 0.96000
80101, 0.00000, 0.12500, 0.96000
80102, 0.12500, 0.12500, 0.96000
80103, 0.25000, 0.12500, 0.96000
80104, 0.37500, 0.12500, 0.96000
80105, 0.50000, 0.12500, 0.96000
80106, 0.62500, 0.12500, 0.96000
80107, 0.75000, 0.12500, 0.96000
80108, 0.87500, 0.12500, 0.96000
80109, 1.00000, 0.12500, 0.96000
80110, 1.12500, 0.12500, 0.96000
80111, 1.25000, 0.12500, 0.96000
80112, 1.37500, 0.12500, 0.96000
80113, 1.50000, 0.12500, 0.96000
80201, 0.00000, 0.25000, 0.96000
80202, 0.12500, 0.25000, 0.96000
80203, 0.25000, 0.25000, 0.96000
80204, 0.37500, 0.25000, 0.96000
80205, 0.50000, 0.25000, 0.96000
80206, 0.62500, 0.25000, 0.96000
80207, 0.75000, 0.25000, 0.96000
80208, 0.87500, 0.25000, 0.96000
80209, 1.00000, 0.25000, 0.96000
80210, 1.12500, 0.25000, 0.96000
80211, 1.25000, 0.25000, 0.96000
80212, 1.37500, 0.25000, 0.96000
80213, 1.50000, 0.25000, 0.96000
80301, 0.00000, 0.37500, 0.96000
80302, 0.12500, 0.37500, 0.96000
80303, 0.25000, 0.37500, 0.96000
80304, 0.37500, 0.37500, 0.96000
80305, 0.50000, 0.37500, 0.96000
80306, 0.62500, 0.37500, 0.96000
80307, 0.75000, 0.37500, 0.96000
80308, 0.87500, 0.37500, 0.96000
80309, 1.00000, 0.37500, 0.96000
80310, 1.12500, 0.37500, 0.96000
80311, 1.25000, 0.37500, 0.96000
80312, 1.37500, 0.37500, 0.96000
80313, 1.50000, 0.37500, 0.96000
80401, 0.00000, 0.50000, 0.96000
80402, 0.12500, 0.50000, 0.96000
80403, 0.25000, 0.50000, 0.96000
80404, 0.37500, 0.50000, 0.96000
80405, 0.50000, 0.50000, 0.96000
80406, 0.62500, 0.50000, 0.96000
80407, 0.75000, 0.50000, 0.96000
80408, 0.87500, 0.50000, 0.96000
80409, 1.00000, 0.50000, 0.96000
80410, 1.12500, 0.50000, 0.96000
80411, 1.25000, 0.50000, 0.96000
80412, 1.37500, 0.50000, 0.96000
80413, 1.50000, 0.50000, 0.96000
80501, 0.00000, 0.62500, 0.96000
80502, 0.12500, 0.62500, 0.96000
80503, 0.25000, 0.62500, 0.96000
80504, 0.37500, 0.62500, 0.96000
80505, 0.50000, 0.62500, 0.96000
80506, 0.62500, 0.62500, 0.96000
80507, 0.75000, 0.62500, 0.96000
80508, 0.87500, 0.62500, 0.96000
80509, 1.00000, 0.62500, 0.96000
80510, 1.12500, 0.62500, 0.96000
80511, 1.25000, 0.62500, 0.96000
80512, 1.37500, 0.62500, 0.96000
80513, 1.50000, 0.62500, 0.96000
80601, 0.00000, 0.75000, 0.96000
80602, 0.12500, 0.75000, 0.96000
80603, 0.25000, 0.75000, 0.96000
80604, 0.37500, 0.75000, 0.96000
80605, 0.50000, 0.75000, 0.96000
80606, 0.62500, 0.75000, 0.96000
80607, 0.75000, 0.75000, 0.96000
80608, 0.87500, 0.75000, 0.96000
80609, 1.00000, 0.75000, 0.96000
80610, 1.12500, 0.75000, 0.96000
80611, 1.25000, 0.75000, 0.96000
80612, 1.37500, 0.75000, 0.96000
80613, 1.50000, 0.75000, 0.96000
80701, 0.00000, 0.87500, 0.96000
80702, 0.12500, 0.87500, 0.96000
80703, 0.25000, 0.87500, 0.96000
80704, 0.37500, 0.87500, 0.96000
80705, 0.50000, 0.87500, 0.96000
80706, 0.62500, 0.87500, 0.96000
80707, 0.75000, 0.87500, 0.96000
80708, 0.87500, 0.87500, 0.96000
80709, 1.00000, 0.87500, 0.96000
80710, 1.12500, 0.87500, 0.96000
80711, 1.25000, 0.87500, 0.96000
80712, 1.37500, 0.87500, 0.96000
80713, 1.50000, 0.87500, 0.96000
80801, 0.00000, 1.00000, 0.96000
80802, 0.12500, 1.00000, 0.96000
80803, 0.25000, 1.00000, 0.96000
80804, 0.37500, 1.00000, 0.96000
80805, 0.50000, 1.00000, 0.96000
80806, 0.62500, 1.00000, 0.96000
80807, 0.75000, 1.00000, 0.96000
80808, 0.87500, 1.00000, 0.96000
80809, 1.00000, 1.00000, 0.96000
80810, 1.12500, 1.00000, 0.96000
80811, 1.25000, 1.00000, 0.96000
80812, 1.37500, 1.00000, 0.96000
80813, 1.50000, 1.00000, 0.96000
80901, 0.00000, 1.12500, 0.96000
80902, 0.12500, 1.12500, 0.96000
80903, 0.25000, 1.12500, 0.96000
80904, 0.37500, 1.12500, 0.96000
80905, 0.50000, 1.12500, 0.96000
80906, 0.62500, 1.12500, 0.96000
80907, 0.75000, 1.12500, 0.96000
80908, 0.87500, 1.12500, 0.96000
80909, 1.00000, 1.12500, 0.96000
80910, 1.12500, 1.12500, 0.96000
80911, 1.25000, 1.12500, 0.96000
80912, 1.37500, 1.12500, 0.96000
80913, 1.50000, 1.12500, 0.96000
81001, 0.00000, 1.25000, 0.96000
81002, 0.12500, 1.25000, 0.96000
81003, 0.25000, 1.25000, 0.96000
81004, 0.37500, 1.25000, 0.96000
81005, 0.50000, 1.25000, 0.96000
81006, 0.62500, 1.25000, 0.96000
81007, 0.75000, 1.25000, 0.96000
81008, 0.87500, 1.25000, 0.96000
81009, 1.00000, 1.25000, 0.96000
81010, 1.12500, 1.25000, 0.96000
81011, 1.25000, 1.25000, 0.96000
81012, 1.37500, 1.25000, 0.96000
81013, 1.50000, 1.25000, 0.96000
81101, 0.00000, 1.37500, 0.96000
81102, 0.12500, 1.37500, 0.96000
81103, 0.25000, 1.37500, 0.96000
81104, 0.37500, 1.37500, 0.96000
81105, 0.50000, 1.37500, 0.96000
81106, 0.62500, 1.37500, 0.96000
81107, 0.75000, 1.37500, 0.96000
81108, 0.87500, 1.37500, 0.96000
81109, 1.00000, 1.37500, 0.96000
81110, 1.12500, 1.37500, 0.96000
81111, 1.25000, 1.37500, 0.96000
81112, 1.37500, 1.37500, 0.96000
81113, 1.50000, 1.37500, 0.96000
81201, 0.00000, 1.50000, 0.96000
81202, 0.12500, 1.50000, 0.96000
81203, 0.25000, 1.50000, 0.96000
81204, 0.37500, 1.50000, 0.96000
81205, 0.50000, 1.50000, 0.96000
81206, 0.62500, 1.50000, 0.96000
81207, 0.75000, 1.50000, 0.96000
81208, 0.87500, 1.50000, 0.96000
81209, 1.00000, 1.50000, 0.96000
81210, 1.12500, 1.50000, 0.96000
81211, 1.25000, 1.50000, 0.96000
81212, 1.37500, 1.50000, 0.96000
81213, 1.50000, 1.50000, 0.96000
90001, 0.00000, 0.00000, 1.08000
90002, 0.12500, 0.00000, 1.08000
90003, 0.25000, 0.00000, 1.08000
90004, 0.37500, 0.00000, 1.08000
90005, 0.50000, 0.00000, 1.08000
90006, 0.62500, 0.00000, 1.08000
90007, 0.75000, 0.00000, 1.08000
90008, 0.87500, 0.00000, 1.08000
90009, 1.00000, 0.00000, 1.08000
90010, 1.12500, 0.00000, 1.08000
90011, 1.25000, 0.00000, 1.08000
90012, 1.37500, 0.00000, 1.08000
90013, 1.50000, 0.00000, 1.08000
90101, 0.00000, 0.12500, 1.08000
90102, 0.12500, 0.12500, 1.08000
90103, 0.25000, 0.12500, 1.08000
90104, 0.37500, 0.12500, 1.08000
90105, 0.50000, 0.12500, 1.08000
90106, 0.62500, 0.12500, 1.08000
90107, 0.75000, 0.12500, 1.08000
90108, 0.87500, 0.12500, 1.08000
90109, 1.00000, 0.12500, 1.08000
90110, 1.12500, 0.12500, 1.08000
90111, 1.25000, 0.12500, 1.08000
90112, 1.37500, 0.12500, 1.08000
90113, 1.50000, 0.12500, 1.08000
90201, 0.00000, 0.25000, 1.08000
90202, 0.12500, 0.25000, 1.08000
90203, 0.25000, 0.25000, 1.08000
90204, 0.37500, 0.25000, 1.08000
90205, 0.50000, 0.25000, 1.08000
90206, 0.62500, 0.25000, 1.08000
90207, 0.75000, 0.25000, 1.08000
90208, 0.87500, 0.25000, 1.08000
90209, 1.00000, 0.25000, 1.08000
90210, 1.12500, 0.25000, 1.08000
90211, 1.25000, 0.25000, 1.08000
90212, 1.37500, 0.25000, 1.08000
90213, 1.50000, 0.25000, 1.08000
90301, 0.00000, 0.37500, 1.08000
90302, 0.12500, 0.37500, 1.08000
90303, 0.25000, 0.37500, 1.08000
90304, 0.37500, 0.37500, 1.08000
90305, 0.50000, 0.37500, 1.08000
90306, 0.62500, 0.37500, 1.08000
90307, 0.75000, 0.37500, 1.08000
90308, 0.87500, 0.37500, 1.08000
90309, 1.00000, 0.37500, 1.08000
90310, 1.12500, 0.37500, 1.08000
90311, 1.25000, 0.37500, 1.08000
90312, 1.37500, 0.37500, 1.08000
90313, 1.50000, 0.37500, 1.08000
90401, 0.00000, 0.50000, 1.08000
90402, 0.12500, 0.50000, 1.08000
90403, 0.25000, 0.50000, 1.08000
90404, 0.37500, 0.50000, 1.08000
90405, 0.50000, 0.50000, 1.08000
90406, 0.62500, 0.50000, 1.08000
90407, 0.75000, 0.50000, 1.08000
90408, 0.87500, 0.50000, 1.08000
90409, 1.00000, 0.50000, 1.08000
90410, 1.12500, 0.50000, 1.08000
90411, 1.25000, 0.50000, 1.08000
90412, 1.37500, 0.50000, 1.08000
90413, 1.50000, 0.50000, 1.08000
90501, 0.00000, 0.62500, 1.08000
90502, 0.12500, 0.62500, 1.08000
90503, 0.25000, 0.62500, 1.08000
90504, 0.37500, 0.62500, 1.08000
90505, 0.50000, 0.62500, 1.08000
90506, 0.62500, 0.62500, 1.08000
90507, 0.75000, 0.62500, 1.08000
90508, 0.87500, 0.62500, 1.08000
90509, 1.00000, 0.62500, 1.08000
90510, 1.12500, 0.62500, 1.08000
90511, 1.25000, 0.62500, 1.08000
90512, 1.37500, 0.62500, 1.08000
90513, 1.50000, 0.62500, 1.08000
90601, 0.00000, 0.75000, 1.08000
90602, 0.12500, 0.75000, 1.08000
90603, 0.25000, 0.75000, 1.08000
90604, 0.37500, 0.75000, 1.08000
90605, 0.50000, 0.75000, 1.08000
90606, 0.62500, 0.75000, 1.08000
90607, 0.75000, 0.75000, 1.08000
90608, 0.87500, 0.75000, 1.08000
90609, 1.00000, 0.75000, 1.08000
90610, 1.12500, 0.75000, 1.08000
90611, 1.25000, 0.75000, 1.08000
90612, 1.37500, 0.75000, 1.08000
90613, 1.50000, 0.75000, 1.08000
90701, 0.00000, 0.87500, 1.08000
90702, 0.12500, 0.87500, 1.08000
90703, 0.25000, 0.87500, 1.08000
90704, 0.37500, 0.87500, 1.08000
90705, 0.50000, 0.87500, 1.08000
90706, 0.62500, 0.87500, 1.08000
90707, 0.75000, 0.87500, 1.08000
90708, 0.87500, 0.87500, 1.08000
90709, 1.00000, 0.87500, 1.08000
90710, 1.12500, 0.87500, 1.08000
90711, 1.25000, 0.87500, 1.08000
90712, 1.37500, 0.87500, 1.08000
90713, 1.50000, 0.87500, 1.08000
90801, 0.00000, 1.00000, 1.08000
90802, 0.12500, 1.00000, 1.08000
90803, 0.25000, 1.00000, 1.08000
90804, 0.37500, 1.00000, 1.08000
90805, 0.50000, 1.00000, 1.08000
90806, 0.62500, 1.00000, 1.08000
90807, 0.75000, 1.00000, 1.08000
90808, 0.87500, 1.00000, 1.08000
90809, 1.00000, 1.00000, 1.08000
90810, 1.12500, 1.00000, 1.08000
90811, 1.25000, 1.00000, 1.08000
90812, 1.37500, 1.00000, 1.08000
90813, 1.50000, 1.00000, 1.08000
90901, 0.00000, 1.12500, 1.08000
90902, 0.12500, 1.12500, 1.08000
90903, 0.25000, 1.12500, 1.08000
90904, 0.37500, 1.12500, 1.08000
90905, 0.50000, 1.12500, 1.08000
90906, 0.62500, 1.12500, 1.08000
90907, 0.75000, 1.12500, 1.08000
90908, 0.87500, 1.12500, 1.08000
90909, 1.00000, 1.12500, 1.08000
90910, 1.12500, 1.12500, 1.08000
90911, 1.25000, 1.12500, 1.08000
90912, 1.37500, 1.12500, 1.08000
90913, 1.50000, 1.12500, 1.08000
91001, 0.00000, 1.25000, 1.08000
91002, 0.12500, 1.25000, 1.08000
91003, 0.25000, 1.25000, 1.08000
91004, 0.37500, 1.25000, 1.08000
91005, 0.50000, 1.25000, 1.08000
91006, 0.62500, 1.25000, 1.08000
91007, 0.75000, 1.25000, 1.08000
91008, 0.87500, 1.25000, 1.08000
91009, 1.00000, 1.25000, 1.08000
91010, 1.12500, 1.25000, 1.08000
91011, 1.25000, 1.25000, 1.08000
91012, 1.37500, 1.25000, 1.08000
91013, 1.50000, 1.25000, 1.08000
91101, 0.00000, 1.37500, 1.08000
91102, 0.12500, 1.37500, 1.08000
91103, 0.25000, 1.37500, 1.08000
91104, 0.37500, 1.37500, 1.08000
91105, 0.50000, 1.37500, 1.08000
91106, 0.62500, 1.37500, 1.08000
91107, 0.75000, 1.37500, 1.08000
91108, 0.87500, 1.37500, 1.08000
91109, 1.00000, 1.37500, 1.08000
91110, 1.12500, 1.37500, 1.08000
91111, 1.25000, 1.37500, 1.08000
91112, 1.37500, 1.37500, 1.08000
91113, 1.50000, 1.37500, 1.08000
91201, 0.00000, 1.50000, 1.08000
91202, 0.12500, 1.50000, 1.08000
91203, 0.25000, 1.50000, 1.08000
91204, 0.37500, 1.50000, 1.08000
91205, 0.50000, 1.50000, 1.08000
91206, 0.62500, 1.50000, 1.08000
91207, 0.75000, 1.50000, 1.08000
91208, 0.87500, 1.50000, 1.08000
91209, 1.00000, 1.50000, 1.08000
91210, 1.12500, 1.50000, 1.08000
91211, 1.25000, 1.50000, 1.08000
91212, 1.37500, 1.50000, 1.08000
91213, 1.50000, 1.50000, 1.08000
100001, 0.00000, 0.00000, 1.20000
100002, 0.12500, 0.00000, 1.20000
100003, 0.25000, 0.00000, 1.20000
100004, 0.37500, 0.00000, 1.20000
100005, 0.50000, 0.00000, 1.20000
100006, 0.62500, 0.00000, 1.20000
100007, 0.75000, 0.00000, 1.20000
100008, 0.87500, 0.00000, 1.20000
100009, 1.00000, 0.00000, 1.20000
100010, 1.12500, 0.00000, 1.20000
100011, 1.25000, 0.00000, 1.20000
100012, 1.37500, 0.00000, 1.20000
100013, 1.50000, 0.00000, 1.20000
100101, 0.00000, 0.12500, 1.20000
100102, 0.12500, 0.12500, 1.20000
100103, 0.25000, 0.12500, 1.20000
100104, 0.37500, 0.12500, 1.20000
100105, 0.50000, 0.12500, 1.20000
100106, 0.62500, 0.12500, 1.20000
100107, 0.75000, 0.12500, 1.20000
100108, 0.87500, 0.12500, 1.20000
100109, 1.00000, 0.12500, 1.20000
100110, 1.12500, 0.12500, 1.20000
100111, 1.25000, 0.12500, 1.20000
100112, 1.37500, 0.12500, 1.20000
100113, 1.50000, 0.12500, 1.20000
100201, 0.00000, 0.25000, 1.20000
100202, 0.12500, 0.25000, 1.20000
100203, 0.25000, 0.25000, 1.20000
100204, 0.37500, 0.25000, 1.20000
100205, 0.50000, 0.25000, 1.20000
100206, 0.62500, 0.25000, 1.20000
100207, 0.75000, 0.25000, 1.20000
100208, 0.87500, 0.25000, 1.20000
100209, 1.00000, 0.25000, 1.20000
100210, 1.12500, 0.25000, 1.20000
100211, 1.25000, 0.25000, 1.20000
100212, 1.37500, 0.25000, 1.20000
100213, 1.50000, 0.25000, 1.20000
100301, 0.00000, 0.37500, 1.20000
100302, 0.12500, 0.37500, 1.20000
100303, 0.25000, 0.37500, 1.20000
100304, 0.37500, 0.37500, 1.20000
100305, 0.50000, 0.37500, 1.20000
100306, 0.62500, 0.37500, 1.20000
100307, 0.75000, 0.37500, 1.20000
100308, 0.87500, 0.37500, 1.20000
100309, 1.00000, 0.37500, 1.20000
100310, 1.12500, 0.37500, 1.20000
100311, 1.25000, 0.37500, 1.20000
100312, 1.37500, 0.37500, 1.20000
100313, 1.50000, 0.37500, 1.20000
100401, 0.00000, 0.50000, 1.20000
100402, 0.12500, 0.50000, 1.20000
100403, 0.25000, 0.50000, 1.20000
100404, 0.37500, 0.50000, 1.20000
100405, 0.50000, 0.50000, 1.20000
100406, 0.62500, 0.50000, 1.20000
100407, 0.75000, 0.50000, 1.20000
100408, 0.87500, 0.50000, 1.20000
100409, 1.00000, 0.50000, 1.20000
100410, 1.12500, 0.50000, 1.20000
100411, 1.25000, 0.50000, 1.20000
100412, 1.37500, 0.50000, 1.20000
100413, 1.50000, 0.50000, 1.20000
100501, 0.00000, 0.62500, 1.20000
100502, 0.12500, 0.62500, 1.20000
100503, 0.25000, 0.62500, 1.20000
100504, 0.37500, 0.62500, 1.20000
100505, 0.50000, 0.62500, 1.20000
100506, 0.62500, 0.62500, 1.20000
100507, 0.75000, 0.62500, 1.20000
100508, 0.87500, 0.62500, 1.20000
100509, 1.00000, 0.62500, 1.20000
100510, 1.12500, 0.62500, 1.20000
100511, 1.25000, 0.62500, 1.20000
100512, 1.37500, 0.62500, 1.20000
100513, 1.50000, 0.62500, 1.20000
100601, 0.00000, 0.75000, 1.20000
100602, 0.12500, 0.75000, 1.20000
100603, 0.25000, 0.75000, 1.20000
100604, 0.37500, 0.75000, 1.20000
100605, 0.50000, 0.75000, 1.20000
100606, 0.62500, 0.75000, 1.20000
100607, 0.75000, 0.75000, 1.20000
100608, 0.87500, 0.75000, 1.20000
100609, 1.00000, 0.75000, 1.20000
100610, 1.12500, 0.75000, 1.20000
100611, 1.25000, 0.75000, 1.20000
100612, 1.37500, 0.75000, 1.20000
100613, 1.50000, 0.75000, 1.20000
100701, 0.00000, 0.87500, 1.20000
100702, 0.12500, 0.87500, 1.20000
100703, 0.25000, 0.87500, 1.20000
100704, 0.37500, 0.87500, 1.20000
100705, 0.50000, 0.87500, 1.20000
100706, 0.62500, 0.87500, 1.20000
100707, 0.75000, 0.87500, 1.20000
100708, 0.87500, 0.87500, 1.20000
100709, 1.00000, 0.87500, 1.20000
100710, 1.12500, 0.87500, 1.20000
100711, 1.25000, 0.87500, 1.20000
100712, 1.37500, 0.87500, 1.20000
100713, 1.50000, 0.87500, 1.20000
100801, 0.00000, 1.00000, 1.20000
100802, 0.12500, 1.00000, 1.20000
100803, 0.25000, 1.00000, 1.20000
100804, 0.37500, 1.00000, 1.20000
100805, 0.50000, 1.00000, 1.20000
100806, 0.62500, 1.00000, 1.20000
100807, 0.75000, 1.00000, 1.20000
100808, 0.87500, 1.00000, 1.20000
100809, 1.00000, 1.00000, 1.20000
100810, 1.12500, 1.00000, 1.20000
100811, 1.25000, 1.00000, 1.20000
100812, 1.37500, 1.00000, 1.20000
100813, 1.50000, 1.00000, 1.20000
100901, 0.00000, 1.12500, 1.20000
100902, 0.12500, 1.12500, 1.20000
100903, 0.25000, 1.12500, 1.20000
100904, 0.37500, 1.12500, 1.20000
100905, 0.50000, 1.12500, 1.20000
100906, 0.62500, 1.12500, 1.20000
100907, 0.75000, 1.12500, 1.20000
100908, 0.87500, 1.12500, 1.20000
100909, 1.00000, 1.12500, 1.20000
100910, 1.12500, 1.12500, 1.20000
100911, 1.25000, 1.12500, 1.20000
100912, 1.37500, 1.12500, 1.20000
100913, 1.50000, 1.12500, 1.20000
101001, 0.00000, 1.25000, 1.20000
101002, 0.12500, 1.25000, 1.20000
101003, 0.25000, 1.25000, 1.20000
101004, 0.37500, 1.25000, 1.20000
101005, 0.50000, 1.25000, 1.20000
101006, 0.62500, 1.25000, 1.20000
101007, 0.75000, 1.25000, 1.20000
101008, 0.87500, 1.25000, 1.20000
101009, 1.00000, 1.25000, 1.20000
101010, 1.12500, 1.25000, 1.20000
101011, 1.25000, 1.25000, 1.20000
101012, 1.37500, 1.25000, 1.20000
101013, 1.50000, 1.25000, 1.20000
101101, 0.00000, 1.37500, 1.20000
101102, 0.12500, 1.37500, 1.20000
101103, 0.25000, 1.37500, 1.20000
101104, 0.37500, 1.37500, 1.20000
101105, 0.50000, 1.37500, 1.20000
101106, 0.62500, 1.37500, 1.20000
101107, 0.75000, 1.37500, 1.20000
101108, 0.87500, 1.37500, 1.20000
101109, 1.00000, 1.37500, 1.20000
101110, 1.12500, 1.37500, 1.20000
101111, 1.25000, 1.37500, 1.20000
101112, 1.37500, 1.37500, 1.20000
101113, 1.50000, 1.37500, 1.20000
101201, 0.00000, 1.50000, 1.20000
101202, 0.12500, 1.50000, 1.20000
101203, 0.25000, 1.50000, 1.20000
101204, 0.37500, 1.50000, 1.20000
101205, 0.50000, 1.50000, 1.20000
101206, 0.62500, 1.50000, 1.20000
101207, 0.75000, 1.50000, 1.20000
101208, 0.87500, 1.50000, 1.20000
101209, 1.00000, 1.50000, 1.20000
101210, 1.12500, 1.50000, 1.20000
101211, 1.25000, 1.50000, 1.20000
101212, 1.37500, 1.50000, 1.20000
101213, 1.50000, 1.50000, 1.20000
*ELEMENT, TYPE=C3D8R
1, 1,2,102,101, 10001,10002,10102,10101
2, 2,3,103,102, 10002,10003,10103,10102
3, 3,4,104,103, 10003,10004,10104,10103
4, 4,5,105,104, 10004,10005,10105,10104
5, 5,6,106,105, 10005,10006,10106,10105
6, 6,7,107,106, 10006,10007,10107,10106
7, 7,8,108,107, 10007,10008,10108,10107
8, 8,9,109,108, 10008,10009,10109,10108
9, 9,10,110,109, 10009,10010,10110,10109
10, 10,11,111,110, 10010,10011,10111,10110
11, 11,12,112,111, 10011,10012,10112,10111
12, 12,13,113,112, 10012,10013,10113,10112
101, 101,102,202,201, 10101,10102,10202,10201
102, 102,103,203,202, 10102,10103,10203,10202
103, 103,104,204,203, 10103,10104,10204,10203
104, 104,105,205,204, 10104,10105,10205,10204
105, 105,106,206,205, 10105,10106,10206,10205
106, 106,107,207,206, 10106,10107,10207,10206
107, 107,108,208,207, 10107,10108,10208,10207
108, 108,109,209,208, 10108,10109,10209,10208
109, 109,110,210,209, 10109,10110,10210,10209
110, 110,111,211,210, 10110,10111,10211,10210
111, 111,112,212,211, 10111,10112,10212,10211
112, 112,113,213,212, 10112,10113,10213,10212
201, 201,202,302,301, 10201,10202,10302,10301
202, 202,203,303,302, 10202,10203,10303,10302
203, 203,204,304,303, 10203,10204,10304,10303
204, 204,205,305,304, 10204,10205,10305,10304
205, 205,206,306,305, 10205,10206,10306,10305
206, 206,207,307,306, 10206,10207,10307,10306
207, 207,208,308,307, 10207,10208,10308,10307
208, 208,209,309,308, 10208,10209,10309,10308
209, 209,210,310,309, 10209,10210,10310,10309
210, 210,211,311,310, 10210,10211,10311,10310
211, 211,212,312,311, 10211,10212,10312,10311
212, 212,213,313,312, 10212,10213,10313,10312
301, 301,302,402,401, 10301,10302,10402,10401
302, 302,303,403,402, 10302,10303,10403,10402
303, 303,304,404,403, 10303,10304,10404,10403
304, 304,305,405,404, 10304,10305,10405,10404
305, 305,306,406,405, 10305,10306,10406,10405
306, 306,307,407,406, 10306,10307,10407,10406
307, 307,308,408,407, 10307,10308,10408,10407
308, 308,309,409,408, 10308,10309,10409,10408
309, 309,310,410,409, 10309,10310,10410,10409
310, 310,311,411,410, 10310,10311,10411,10410
311, 311,312,412,411, 10311,10312,10412,10411
312, 312,313,413,412, 10312,10313,10413,10412
401, 401,402,502,501, 10401,10402,10502,10501
402, 402,403,503,502, 10402,10403,10503,10502
403, 403,404,504,503, 10403,10404,10504,10503
404, 404,405,505,504, 10404,10405,10505,10504
405, 405,406,506,505, 10405,10406,10506,10505
406, 406,407,507,506, 10406,10407,10507,10506
407, 407,408,508,507, 10407,10408,10508,10507
408, 408,409,509,508, 10408,10409,10509,10508
409, 409,410,510,509, 10409,10410,10510,10509
410, 410,411,511,510, 10410,10411,10511,10510
411, 411,412,512,511, 10411,10412,10512,10511
412, 412,413,513,512, 10412,10413,10513,10512
501, 501,502,602,601, 10501,10502,10602,10601
502, 502,503,603,602, 10502,10503,10603,10602
503, 503,504,604,603, 10503,10504,10604,10603
504, 504,505,605,604, 10504,10505,10605,10604
505, 505,506,606,605, 10505,10506,10606,10605
506, 506,507,607,606, 10506,10507,10607,10606
507, 507,508,608,607, 10507,10508,10608,10607
508, 508,509,609,608, 10508,10509,10609,10608
509, 509,510,610,609, 10509,10510,10610,10609
510, 510,511,611,610, 10510,10511,10611,10610
511, 511,512,612,611, 10511,10512,10612,10611
512, 512,513,613,612, 10512,10513,10613,10612
601, 601,602,702,701, 10601,10602,10702,10701
602, 602,603,703,702, 10602,10603,10703,10702
603, 603,604,704,703, 10603,10604,10704,10703
604, 604,605,705,704, 10604,10605,10705,10704
605, 605,606,706,705, 10605,10606,10706,10705
606, 606,607,707,706, 10606,10607,10707,10706
607, 607,608,708,707, 10607,10608,10708,10707
608, 608,609,709,708, 10608,10609,10709,10708
609, 609,610,710,709, 10609,10610,10710,10709
610, 610,611,711,710, 10610,10611,10711,10710
611, 611,612,712,711, 10611,10612,10712,10711
612, 612,613,713,712, 10612,10613,10713,10712
701, 701,702,802,801, 10701,10702,10802,10801
702, 702,703,803,802, 10702,10703,10803,10802
703, 703,704,804,803, 10703,10704,10804,10803
704, 704,705,805,804, 10704,10705,10805,10804
705, 705,706,806,805, 10705,10706,10806,10805
706, 706,707,807,806, 10706,10707,10807,10806
707, 707,708,808,807, 10707,10708,10808,10807
708, 708,709,809,808, 10708,10709,10809,10808
709, 709,710,810,809, 10709,10710,10810,10809
710, 710,711,811,810, 10710,10711,10811,10810
711, 711,712,812,811, 10711,10712,10812,10811
712, 712,713,813,812, 10712,10713,10813,10812
801, 801,802,902,901, 10801,10802,10902,10901
802, 802,803,903,902, 10802,10803,10903,10902
803, 803,804,904,903, 10803,10804,10904,10903
804, 804,805,905,904, 10804,10805,10905,10904
805, 805,806,906,905, 10805,10806,10906,10905
806, 806,807,907,906, 10806,10807,10907,10906
807, 807,808,908,907, 10807,10808,10908,10907
808, 808,809,909,908, 10808,10809,10909,10908
809, 809,810,910,909, 10809,10810,10910,10909
810, 810,811,911,910, 10810,10811,10911,10910
811, 811,812,912,911, 10811,10812,10912,10911
812, 812,813,913,912, 10812,10813,10913,10912
901, 901,902,1002,1001, 10901,10902,11002,11001
902, 902,903,1003,1002, 10902,10903,11003,11002
903, 903,904,1004,1003, 10903,10904,11004,11003
904, 904,905,1005,1004, 10904,10905,11005,11004
905, 905,906,1006,1005, 10905,10906,11006,11005
906, 906,907,1007,1006, 10906,10907,11007,11006
907, 907,908,1008,1007, 10907,10908,11008,11007
908, 908,909,1009,1008, 10908,10909,11009,11008
909, 909,910,1010,1009, 10909,10910,11010,11009
910, 910,911,1011,1010, 10910,10911,11011,11010
911, 911,912,1012,1011, 10911,10912,11012,11011
912, 912,913,1013,1012, 10912,10913,11013,11012
1001, 1001,1002,1102,1101, 11001,11002,11102,11101
1002, 1002,1003,1103,1102, 11002,11003,11103,11102
1003, 1003,1004,1104,1103, 11003,11004,11104,11103
1004, 1004,1005,1105,1104, 11004,11005,11105,11104
1005, 1005,1006,1106,1105, 11005,11006,11106,11105
1006, 1006,1007,1107,1106, 11006,11007,11107,11106
1007, 1007,1008,1108,1107, 11007,11008,11108,11107
1008, 1008,1009,1109,1108, 11008,11009,11109,11108
1009, 1009,1010,1110,1109, 11009,11010,11110,11109
1010, 1010,1011,1111,1110, 11010,11011,11111,11110
1011, 1011,1012,1112,1111, 11011,11012,11112,11111
1012, 1012,1013,1113,1112, 11012,11013,11113,11112
1101, 1101,1102,1202,1201, 11101,11102,11202,11201
1102, 1102,1103,1203,1202, 11102,11103,11203,11202
1103, 1103,1104,1204,1203, 11103,11104,11204,11203
1104, 1104,1105,1205,1204, 11104,11105,11205,11204
1105, 1105,1106,1206,1205, 11105,11106,11206,11205
1106, 1106,1107,1207,1206, 11106,11107,11207,11206
1107, 1107,1108,1208,1207, 11107,11108,11208,11207
1108, 1108,1109,1209,1208, 11108,11109,11209,11208
1109, 1109,1110,1210,1209, 11109,11110,11210,11209
1110, 1110,1111,1211,1210, 11110,11111,11211,11210
1111, 1111,1112,1212,1211, 11111,11112,11212,11211
1112, 1112,1113,1213,1212, 11112,11113,11213,11212
10001, 10001,10002,10102,10101, 20001,20002,20102,20101
10002, 10002,10003,10103,10102, 20002,20003,20103,20102
10003, 10003,10004,10104,10103, 20003,20004,20104,20103
10004, 10004,10005,10105,10104, 20004,20005,20105,20104
10005, 10005,10006,10106,10105, 20005,20006,20106,20105
10006, 10006,10007,10107,10106, 20006,20007,20107,20106
10007, 10007,10008,10108,10107, 20007,20008,20108,20107
10008, 10008,10009,10109,10108, 20008,20009,20109,20108
10009, 10009,10010,10110,10109, 20009,20010,20110,20109
10010, 10010,10011,10111,10110, 20010,20011,20111,20110
10011, 10011,10012,10112,10111, 20011,20012,20112,20111
10012, 10012,10013,10113,10112, 20012,20013,20113,20112
10101, 10101,10102,10202,10201, 20101,20102,20202,20201
10102, 10102,10103,10203,10202, 20102,20103,20203,20202
10103, 10103,10104,10204,10203, 20103,20104,20204,20203
10104, 10104,10105,10205,10204, 20104,20105,20205,20204
10105, 10105,10106,10206,10205, 20105,20106,20206,20205
10106, 10106,10107,10207,10206, 20106,20107,20207,20206
10107, 10107,10108,10208,10207, 20107,20108,20208,20207
10108, 10108,10109,10209,10208, 20108,20109,20209,20208
10109, 10109,10110,10210,10209, 20109,20110,20210,20209
10110, 10110,10111,10211,10210, 20110,20111,20211,20210
10111, 10111,10112,10212,10211, 20111,20112,20212,20211
10112, 10112,10113,10213,10212, 20112,20113,20213,20212
10201, 10201,10202,10302,10301, 20201,20202,20302,20301
10202, 10202,10203,10303,10302, 20202,20203,20303,20302
10203, 10203,10204,10304,10303, 20203,20204,20304,20303
10204, 10204,10205,10305,10304, 20204,20205,20305,20304
10205, 10205,10206,10306,10305, 20205,20206,20306,20305
10206, 10206,10207,10307,10306, 20206,20207,20307,20306
10207, 10207,10208,10308,10307, 20207,20208,20308,20307
10208, 10208,10209,10309,10308, 20208,20209,20309,20308
10209, 10209,10210,10310,10309, 20209,20210,20310,20309
10210, 10210,10211,10311,10310, 20210,20211,20311,20310
10211, 10211,10212,10312,10311, 20211,20212,20312,20311
10212, 10212,10213,10313,10312, 20212,20213,20313,20312
10301, 10301,10302,10402,10401, 20301,20302,20402,20401
10302, 10302,10303,10403,10402, 20302,20303,20403,20402
10303, 10303,10304,10404,10403, 20303,20304,20404,20403
10304, 10304,10305,10405,10404, 20304,20305,20405,20404
10305, 10305,10306,10406,10405, 20305,20306,20406,20405
10306, 10306,10307,10407,10406, 20306,20307,20407,20406
10307, 10307,10308,10408,10407, 20307,20308,20408,20407
10308, 10308,10309,10409,10408, 20308,20309,20409,20408
10309, 10309,10310,10410,10409, 20309,20310,20410,20409
10310, 10310,10311,10411,10410, 20310,20311,20411,20410
10311, 10311,10312,10412,10411, 20311,20312,20412,20411
10312, 10312,10313,10413,10412, 20312,20313,20413,20412
10401, 10401,10402,10502,10501, 20401,20402,20502,20501
10402, 10402,10403,10503,10502, 20402,20403,20503,20502
10403, 10403,10404,10504,10503, 20403,20404,20504,20503
10404, 10404,10405,10505,10504, 20404,20405,20505,20504
10405, 10405,10406,10506,10505, 20405,20406,20506,20505
10406, 10406,10407,10507,10506, 20406,20407,20507,20506
10407, 10407,10408,10508,10507, 20407,20408,20508,20507
10408, 10408,10409,10509,10508, 20408,20409,20509,20508
10409, 10409,10410,10510,10509, 20409,20410,20510,20509
10410, 10410,10411,10511,10510, 20410,20411,20511,20510
10411, 10411,10412,10512,10511, 20411,20412,20512,20511
10412, 10412,10413,10513,10512, 20412,20413,20513,20512
10501, 10501,10502,10602,10601, 20501,20502,20602,20601
10502, 10502,10503,10603,10602, 20502,20503,20603,20602
10503, 10503,10504,10604,10603, 20503,20504,20604,20603
10504, 10504,10505,10605,10604, 20504,20505,20605,20604
10505, 10505,10506,10606,10605, 20505,20506,20606,20605
10506, 10506,10507,10607,10606, 20506,20507,20607,20606
10507, 10507,10508,10608,10607, 20507,20508,20608,20607
10508, 10508,10509,10609,10608, 20508,20509,20609,20608
10509, 10509,10510,10610,10609, 20509,20510,20610,20609
10510, 10510,10511,10611,10610, 20510,20511,20611,20610
10511, 10511,10512,10612,10611, 20511,20512,20612,20611
10512, 10512,10513,10613,10612, 20512,20513,20613,20612
10601, 10601,10602,10702,10701, 20601,20602,20702,20701
10602, 10602,10603,10703,10702, 20602,20603,20703,20702
10603, 10603,10604,10704,10703, 20603,20604,20704,20703
10604, 10604,10605,10705,10704, 20604,20605,20705,20704
10605, 10605,10606,10706,10705, 20605,20606,20706,20705
10606, 10606,10607,10707,10706, 20606,20607,20707,20706
10607, 10607,10608,10708,10707, 20607,20608,20708,20707
10608, 10608,10609,10709,10708, 20608,20609,20709,20708
10609, 10609,10610,10710,10709, 20609,20610,20710,20709
10610, 10610,10611,10711,10710, 20610,20611,20711,20710
10611, 10611,10612,10712,10711, 20611,20612,20712,20711
10612, 10612,10613,10713,10712, 20612,20613,20713,20712
10701, 10701,10702,10802,10801, 20701,20702,20802,20801
10702, 10702,10703,10803,10802, 20702,20703,20803,20802
10703, 10703,10704,10804,10803, 20703,20704,20804,20803
10704, 10704,10705,10805,10804, 20704,20705,20805,20804
10705, 10705,10706,10806,10805, 20705,20706,20806,20805
10706, 10706,10707,10807,10806, 20706,20707,20807,20806
10707, 10707,10708,10808,10807, 20707,20708,20808,20807
10708, 10708,10709,10809,10808, 20708,20709,20809,20808
10709, 10709,10710,10810,10809, 20709,20710,20810,20809
10710, 10710,10711,10811,10810, 20710,20711,20811,20810
10711, 10711,10712,10812,10811, 20711,20712,20812,20811
10712, 10712,10713,10813,10812, 20712,20713,20813,20812
10801, 10801,10802,10902,10901, 20801,20802,20902,20901
10802, 10802,10803,10903,10902, 20802,20803,20903,20902
10803, 10803,10804,10904,10903, 20803,20804,20904,20903
10804, 10804,10805,10905,10904, 20804,20805,20905,20904
10805, 10805,10806,10906,10905, 20805,20806,20906,20905
10806, 10806,10807,10907,10906, 20806,20807,20907,20906
10807, 10807,10808,10908,10907, 20807,20808,20908,20907
10808, 10808,10809,10909,10908, 20808,20809,20909,20908
10809, 10809,10810,10910,10909, 20809,20810,20910,20909
10810, 10810,10811,10911,10910, 20810,20811,20911,20910
10811, 10811,10812,10912,10911, 20811,20812,20912,20911
10812, 10812,10813,10913,10912, 20812,20813,20913,20912
10901, 10901,10902,11002,11001, 20901,20902,21002,21001
10902, 10902,10903,11003,11002, 20902,20903,21003,21002
10903, 10903,10904,11004,11003, 20903,20904,21004,21003
10904, 10904,10905,11005,11004, 20904,20905,21005,21004
10905, 10905,10906,11006,11005, 20905,20906,21006,21005
10906, 10906,10907,11007,11006, 20906,20907,21007,21006
10907, 10907,10908,11008,11007, 20907,20908,21008,21007
10908, 10908,10909,11009,11008, 20908,20909,21009,21008
10909, 10909,10910,11010,11009, 20909,20910,21010,21009
10910, 10910,10911,11011,11010, 20910,20911,21011,21010
10911, 10911,10912,11012,11011, 20911,20912,21012,21011
10912, 10912,10913,11013,11012, 20912,20913,21013,21012
11001, 11001,11002,11102,11101, 21001,21002,21102,21101
11002, 11002,11003,11103,11102, 21002,21003,21103,21102
11003, 11003,11004,11104,11103, 21003,21004,21104,21103
11004, 11004,11005,11105,11104, 21004,21005,21105,21104
11005, 11005,11006,11106,11105, 21005,21006,21106,21105
11006, 11006,11007,11107,11106, 21006,21007,21107,21106
11007, 11007,11008,11108,11107, 21007,21008,21108,21107
11008, 11008,11009,11109,11108, 21008,21009,21109,21108
11009, 11009,11010,11110,11109, 21009,21010,21110,21109
11010, 11010,11011,11111,11110, 21010,21011,21111,21110
11011, 11011,11012,11112,11111, 21011,21012,21112,21111
11012, 11012,11013,11113,11112, 21012,21013,21113,21112
11101, 11101,11102,11202,11201, 21101,21102,21202,21201
11102, 11102,11103,11203,11202, 21102,21103,21203,21202
11103, 11103,11104,11204,11203, 21103,21104,21204,21203
11104, 11104,11105,11205,11204, 21104,21105,21205,21204
11105, 11105,11106,11206,11205, 21105,21106,21206,21205
11106, 11106,11107,11207,11206, 21106,21107,21207,21206
11107, 11107,11108,11208,11207, 21107,21108,21208,21207
11108, 11108,11109,11209,11208, 21108,21109,21209,21208
11109, 11109,11110,11210,11209, 21109,21110,21210,21209
11110, 11110,11111,11211,11210, 21110,21111,21211,21210
11111, 11111,11112,11212,11211, 21111,21112,21212,21211
11112, 11112,11113,11213,11212, 21112,21113,21213,21212
20001, 20001,20002,20102,20101, 30001,30002,30102,30101
20002, 20002,20003,20103,20102, 30002,30003,30103,30102
20003, 20003,20004,20104,20103, 30003,30004,30104,30103
20004, 20004,20005,20105,20104, 30004,30005,30105,30104
20005, 20005,20006,20106,20105, 30005,30006,30106,30105
20006, 20006,20007,20107,20106, 30006,30007,30107,30106
20007, 20007,20008,20108,20107, 30007,30008,30108,30107
20008, 20008,20009,20109,20108, 30008,30009,30109,30108
20009, 20009,20010,20110,20109, 30009,30010,30110,30109
20010, 20010,20011,20111,20110, 30010,30011,30111,30110
20011, 20011,20012,20112,20111, 30011,30012,30112,30111
20012, 20012,20013,20113,20112, 30012,30013,30113,30112
20101, 20101,20102,20202,20201, 30101,30102,30202,30201
20102, 20102,20103,20203,20202, 30102,30103,30203,30202
20103, 20103,20104,20204,20203, 30103,30104,30204,30203
20104, 20104,20105,20205,20204, 30104,30105,30205,30204
20105, 20105,20106,20206,20205, 30105,30106,30206,30205
20106, 20106,20107,20207,20206, 30106,30107,30207,30206
20107, 20107,20108,20208,20207, 30107,30108,30208,30207
20108, 20108,20109,20209,20208, 30108,30109,30209,30208
20109, 20109,20110,20210,20209, 30109,30110,30210,30209
20110, 20110,20111,20211,20210, 30110,30111,30211,30210
20111, 20111,20112,20212,20211, 30111,30112,30212,30211
20112, 20112,20113,20213,20212, 30112,30113,30213,30212
20201, 20201,20202,20302,20301, 30201,30202,30302,30301
20202, 20202,20203,20303,20302, 30202,30203,30303,30302
20203, 20203,20204,20304,20303, 30203,30204,30304,30303
20204, 20204,20205,20305,20304, 30204,30205,30305,30304
20205, 20205,20206,20306,20305, 30205,30206,30306,30305
20206, 20206,20207,20307,20306, 30206,30207,30307,30306
20207, 20207,20208,20308,20307, 30207,30208,30308,30307
20208, 20208,20209,20309,20308, 30208,30209,30309,30308
20209, 20209,20210,20310,20309, 30209,30210,30310,30309
20210, 20210,20211,20311,20310, 30210,30211,30311,30310
20211, 20211,20212,20312,20311, 30211,30212,30312,30311
20212, 20212,20213,20313,20312, 30212,30213,30313,30312
20301, 20301,20302,20402,20401, 30301,30302,30402,30401
20302, 20302,20303,20403,20402, 30302,30303,30403,30402
20303, 20303,20304,20404,20403, 30303,30304,30404,30403
20304, 20304,20305,20405,20404, 30304,30305,30405,30404
20305, 20305,20306,20406,20405, 30305,30306,30406,30405
20306, 20306,20307,20407,20406, 30306,30307,30407,30406
20307, 20307,20308,20408,20407, 30307,30308,30408,30407
20308, 20308,20309,20409,20408, 30308,30309,30409,30408
20309, 20309,20310,20410,20409, 30309,30310,30410,30409
20310, 20310,20311,20411,20410, 30310,30311,30411,30410
20311, 20311,20312,20412,20411, 30311,30312,30412,30411
20312, 20312,20313,20413,20412, 30312,30313,30413,30412
20401, 20401,20402,20502,20501, 30401,30402,30502,30501
20402, 20402,20403,20503,20502, 30402,30403,30503,30502
20403, 20403,20404,20504,20503, 30403,30404,30504,30503
20404, 20404,20405,20505,20504, 30404,30405,30505,30504
20405, 20405,20406,20506,20505, 30405,30406,30506,30505
20406, 20406,20407,20507,20506, 30406,30407,30507,30506
20407, 20407,20408,20508,20507, 30407,30408,30508,30507
20408, 20408,20409,20509,20508, 30408,30409,30509,30508
20409, 20409,20410,20510,20509, 30409,30410,30510,30509
20410, 20410,20411,20511,20510, 30410,30411,30511,30510
20411, 20411,20412,20512,20511, 30411,30412,30512,30511
20412, 20412,20413,20513,20512, 30412,30413,30513,30512
20501, 20501,20502,20602,20601, 30501,30502,30602,30601
20502, 20502,20503,20603,20602, 30502,30503,30603,30602
20503, 20503,20504,20604,20603, 30503,30504,30604,30603
20504, 20504,20505,20605,20604, 30504,30505,30605,30604
20505, 20505,20506,20606,20605, 30505,30506,30606,30605
20506, 20506,20507,20607,20606, 30506,30507,30607,30606
20507, 20507,20508,20608,20607, 30507,30508,30608,30607
20508, 20508,20509,20609,20608, 30508,30509,30609,30608
20509, 20509,20510,20610,20609, 30509,30510,30610,30609
20510, 20510,20511,20611,20610, 30510,30511,30611,30610
20511, 20511,20512,20612,20611, 30511,30512,30612,30611
20512, 20512,20513,20613,20612, 30512,30513,30613,30612
20601, 20601,20602,20702,20701, 30601,30602,30702,30701
20602, 20602,20603,20703,20702, 30602,30603,30703,30702
20603, 20603,20604,20704,20703, 30603,30604,30704,30703
20604, 20604,20605,20705,20704, 30604,30605,30705,30704
20605, 20605,20606,20706,20705, 30605,30606,30706,30705
20606, 20606,20607,20707,20706, 30606,30607,30707,30706
20607, 20607,20608,20708,20707, 30607,30608,30708,30707
20608, 20608,20609,20709,20708, 30608,30609,30709,30708
20609, 20609,20610,20710,20709, 30609,30610,30710,30709
20610, 20610,20611,20711,20710, 30610,30611,30711,30710
20611, 20611,20612,20712,20711, 30611,30612,30712,30711
20612, 20612,20613,20713,20712, 30612,30613,30713,30712
20701, 20701,20702,20802,20801, 30701,30702,30802,30801
20702, 20702,20703,20803,20802, 30702,30703,30803,30802
20703, 20703,20704,20804,20803, 30703,30704,30804,30803
20704, 20704,20705,20805,20804, 30704,30705,30805,30804
20705, 20705,20706,20806,20805, 30705,30706,30806,30805
20706, 20706,20707,20807,20806, 30706,30707,30807,30806
20707, 20707,20708,20808,20807, 30707,30708,30808,30807
20708, 20708,20709,20809,20808, 30708,30709,30809,30808
20709, 20709,20710,20810,20809, 30709,30710,30810,30809
20710, 20710,20711,20811,20810, 30710,30711,30811,30810
20711, 20711,20712,20812,20811, 30711,30712,30812,30811
20712, 20712,20713,20813,20812, 30712,30713,30813,30812
20801, 20801,20802,20902,20901, 30801,30802,30902,30901
20802, 20802,20803,20903,20902, 30802,30803,30903,30902
20803, 20803,20804,20904,20903, 30803,30804,30904,30903
20804, 20804,20805,20905,20904, 30804,30805,30905,30904
20805, 20805,20806,20906,20905, 30805,30806,30906,30905
20806, 20806,20807,20907,20906, 30806,30807,30907,30906
20807, 20807,20808,20908,20907, 30807,30808,30908,30907
20808, 20808,20809,20909,20908, 30808,30809,30909,30908
20809, 20809,20810,20910,20909, 30809,30810,30910,30909
20810, 20810,20811,20911,20910, 30810,30811,30911,30910
20811, 20811,20812,20912,20911, 30811,30812,30912,30911
20812, 20812,20813,20913,20912, 30812,30813,30913,30912
20901, 20901,20902,21002,21001, 30901,30902,31002,31001
20902, 20902,20903,21003,21002, 30902,30903,31003,31002
20903, 20903,20904,21004,21003, 30903,30904,31004,31003
20904, 20904,20905,21005,21004, 30904,30905,31005,31004
20905, 20905,20906,21006,21005, 30905,30906,31006,31005
20906, 20906,20907,21007,21006, 30906,30907,31007,31006
20907, 20907,20908,21008,21007, 30907,30908,31008,31007
20908, 20908,20909,21009,21008, 30908,30909,31009,31008
20909, 20909,20910,21010,21009, 30909,30910,31010,31009
20910, 20910,20911,21011,21010, 30910,30911,31011,31010
20911, 20911,20912,21012,21011, 30911,30912,31012,31011
20912, 20912,20913,21013,21012, 30912,30913,31013,31012
21001, 21001,21002,21102,21101, 31001,31002,31102,31101
21002, 21002,21003,21103,21102, 31002,31003,31103,31102
21003, 21003,21004,21104,21103, 31003,31004,31104,31103
21004, 21004,21005,21105,21104, 31004,31005,31105,31104
21005, 21005,21006,21106,21105, 31005,31006,31106,31105
21006, 21006,21007,21107,21106, 31006,31007,31107,31106
21007, 21007,21008,21108,21107, 31007,31008,31108,31107
21008, 21008,21009,21109,21108, 31008,31009,31109,31108
21009, 21009,21010,21110,21109, 31009,31010,31110,31109
21010, 21010,21011,21111,21110, 31010,31011,31111,31110
21011, 21011,21012,21112,21111, 31011,31012,31112,31111
21012, 21012,21013,21113,21112, 31012,31013,31113,31112
21101, 21101,21102,21202,21201, 31101,31102,31202,31201
21102, 21102,21103,21203,21202, 31102,31103,31203,31202
21103, 21103,21104,21204,21203, 31103,31104,31204,31203
21104, 21104,21105,21205,21204, 31104,31105,31205,31204
21105, 21105,21106,21206,21205, 31105,31106,31206,31205
21106, 21106,21107,21207,21206, 31106,31107,31207,31206
21107, 21107,21108,21208,21207, 31107,31108,31208,31207
21108, 21108,21109,21209,21208, 31108,31109,31209,31208
21109, 21109,21110,21210,21209, 31109,31110,31210,31209
21110, 21110,21111,21211,21210, 31110,31111,31211,31210
21111, 21111,21112,21212,21211, 31111,31112,31212,31211
21112, 21112,21113,21213,21212, 31112,31113,31213,31212
30001, 30001,30002,30102,30101, 40001,40002,40102,40101
30002, 30002,30003,30103,30102, 40002,40003,40103,40102
30003, 30003,30004,30104,30103, 40003,40004,40104,40103
30004, 30004,30005,30105,30104, 40004,40005,40105,40104
30005, 30005,30006,30106,30105, 40005,40006,40106,40105
30006, 30006,30007,30107,30106, 40006,40007,40107,40106
30007, 30007,30008,30108,30107, 40007,40008,40108,40107
30008, 30008,30009,30109,30108, 40008,40009,40109,40108
30009, 30009,30010,30110,30109, 40009,40010,40110,40109
30010, 30010,30011,30111,30110, 40010,40011,40111,40110
30011, 30011,30012,30112,30111, 40011,40012,40112,40111
30012, 30012,30013,30113,30112, 40012,40013,40113,40112
30101, 30101,30102,30202,30201, 40101,40102,40202,40201
30102, 30102,30103,30203,30202, 40102,40103,40203,40202
30103, 30103,30104,30204,30203, 40103,40104,40204,40203
30104, 30104,30105,30205,30204, 40104,40105,40205,40204
30105, 30105,30106,30206,30205, 40105,40106,40206,40205
30106, 30106,30107,30207,30206, 40106,40107,40207,40206
30107, 30107,30108,30208,30207, 40107,40108,40208,40207
30108, 30108,30109,30209,30208, 40108,40109,40209,40208
30109, 30109,30110,30210,30209, 40109,40110,40210,40209
30110, 30110,30111,30211,30210, 40110,40111,40211,40210
30111, 30111,30112,30212,30211, 40111,40112,40212,40211
30112, 30112,30113,30213,30212, 40112,40113,40213,40212
30201, 30201,30202,30302,30301, 40201,40202,40302,40301
30202, 30202,30203,30303,30302, 40202,40203,40303,40302
30203, 30203,30204,30304,30303, 40203,40204,40304,40303
30204, 30204,30205,30305,30304, 40204,40205,40305,40304
30205, 30205,30206,30306,30305, 40205,40206,40306,40305
30206, 30206,30207,30307,30306, 40206,40207,40307,40306
30207, 30207,30208,30308,30307, 40207,40208,40308,40307
30208, 30208,30209,30309,30308, 40208,40209,40309,40308
30209, 30209,30210,30310,30309, 40209,40210,40310,40309
30210, 30210,30211,30311,30310, 40210,40211,40311,40310
30211, 30211,30212,30312,30311, 40211,40212,40312,40311
30212, 30212,30213,30313,30312, 40212,40213,40313,40312
30301, 30301,30302,30402,30401, 40301,40302,40402,40401
30302, 30302,30303,30403,30402, 40302,40303,40403,40402
30303, 30303,30304,30404,30403, 40303,40304,40404,40403
30304, 30304,30305,30405,30404, 40304,40305,40405,40404
30305, 30305,30306,30406,30405, 40305,40306,40406,40405
30306, 30306,30307,30407,30406, 40306,40307,40407,40406
30307, 30307,30308,30408,30407, 40307,40308,40408,40407
30308, 30308,30309,30409,30408, 40308,40309,40409,40408
30309, 30309,30310,30410,30409, 40309,40310,40410,40409
30310, 30310,30311,30411,30410, 40310,40311,40411,40410
30311, 30311,30312,30412,30411, 40311,40312,40412,40411
30312, 30312,30313,30413,30412, 40312,40313,40413,40412
30401, 30401,30402,30502,30501, 40401,40402,40502,40501
30402, 30402,30403,30503,30502, 40402,40403,40503,40502
30403, 30403,30404,30504,30503, 40403,40404,40504,40503
30404, 30404,30405,30505,30504, 40404,40405,40505,40504
30405, 30405,30406,30506,30505, 40405,40406,40506,40505
30406, 30406,30407,30507,30506, 40406,40407,40507,40506
30407, 30407,30408,30508,30507, 40407,40408,40508,40507
30408, 30408,30409,30509,30508, 40408,40409,40509,40508
30409, 30409,30410,30510,30509, 40409,40410,40510,40509
30410, 30410,30411,30511,30510, 40410,40411,40511,40510
30411, 30411,30412,30512,30511, 40411,40412,40512,40511
30412, 30412,30413,30513,30512, 40412,40413,40513,40512
30501, 30501,30502,30602,30601, 40501,40502,40602,40601
30502, 30502,30503,30603,30602, 40502,40503,40603,40602
30503, 30503,30504,30604,30603, 40503,40504,40604,40603
30504, 30504,30505,30605,30604, 40504,40505,40605,40604
30505, 30505,30506,30606,30605, 40505,40506,40606,40605
30506, 30506,30507,30607,30606, 40506,40507,40607,40606
30507, 30507,30508,30608,30607, 40507,40508,40608,40607
30508, 30508,30509,30609,30608, 40508,40509,40609,40608
30509, 30509,30510,30610,30609, 40509,40510,40610,40609
30510, 30510,30511,30611,30610, 40510,40511,40611,40610
30511, 30511,30512,30612,30611, 40511,40512,40612,40611
30512, 30512,30513,30613,30612, 40512,40513,40613,40612
30601, 30601,30602,30702,30701, 40601,40602,40702,40701
30602, 30602,30603,30703,30702, 40602,40603,40703,40702
30603, 30603,30604,30704,30703, 40603,40604,40704,40703
30604, 30604,30605,30705,30704, 40604,40605,40705,40704
30605, 30605,30606,30706,30705, 40605,40606,40706,40705
30606, 30606,30607,30707,30706, 40606,40607,40707,40706
30607, 30607,30608,30708,30707, 40607,40608,40708,40707
30608, 30608,30609,30709,30708, 40608,40609,40709,40708
30609, 30609,30610,30710,30709, 40609,40610,40710,40709
30610, 30610,30611,30711,30710, 40610,40611,40711,40710
30611, 30611,30612,30712,30711, 40611,40612,40712,40711
30612, 30612,30613,30713,30712, 40612,40613,40713,40712
30701, 30701,30702,30802,30801, 40701,40702,40802,40801
30702, 30702,30703,30803,30802, 40702,40703,40803,40802
30703, 30703,30704,30804,30803, 40703,40704,40804,40803
30704, 30704,30705,30805,30804, 40704,40705,40805,40804
30705, 30705,30706,30806,30805, 40705,40706,40806,40805
30706, 30706,30707,30807,30806, 40706,40707,40807,40806
30707, 30707,30708,30808,30807, 40707,40708,40808,40807
30708, 30708,30709,30809,30808, 40708,40709,40809,40808
30709, 30709,30710,30810,30809, 40709,40710,40810,40809
30710, 30710,30711,30811,30810, 40710,40711,40811,40810
30711, 30711,30712,30812,30811, 40711,40712,40812,40811
30712, 30712,30713,30813,30812, 40712,40713,40813,40812
30801, 30801,30802,30902,30901, 40801,40802,40902,40901
30802, 30802,30803,30903,30902, 40802,40803,40903,40902
30803, 30803,30804,30904,30903, 40803,40804,40904,40903
30804, 30804,30805,30905,30904, 40804,40805,40905,40904
30805, 30805,30806,30906,30905, 40805,40806,40906,40905
30806, 30806,30807,30907,30906, 40806,40807,40907,40906
30807, 30807,30808,30908,30907, 40807,40808,40908,40907
30808, 30808,30809,30909,30908, 40808,40809,40909,40908
30809, 30809,30810,30910,30909, 40809,40810,40910,40909
30810, 30810,30811,30911,30910, 40810,40811,40911,40910
30811, 30811,30812,30912,30911, 40811,40812,40912,40911
30812, 30812,30813,30913,30912, 40812,40813,40913,40912
30901, 30901,30902,31002,31001, 40901,40902,41002,41001
30902, 30902,30903,31003,31002, 40902,40903,41003,41002
30903, 30903,30904,31004,31003, 40903,40904,41004,41003
30904, 30904,30905,31005,31004, 40904,40905,41005,41004
30905, 30905,30906,31006,31005, 40905,40906,41006,41005
30906, 30906,30907,31007,31006, 40906,40907,41007,41006
30907, 30907,30908,31008,31007, 40907,40908,41008,41007
30908, 30908,30909,31009,31008, 40908,40909,41009,41008
30909, 30909,30910,31010,31009, 40909,40910,41010,41009
30910, 30910,30911,31011,31010, 40910,40911,41011,41010
30911, 30911,30912,31012,31011, 40911,40912,41012,41011
30912, 30912,30913,31013,31012, 40912,40913,41013,41012
31001, 31001,31002,31102,31101, 41001,41002,41102,41101
31002, 31002,31003,31103,31102, 41002,41003,41103,41102
31003, 31003,31004,31104,31103, 41003,41004,41104,41103
31004, 31004,31005,31105,31104, 41004,41005,41105,41104
31005, 31005,31006,31106,31105, 41005,41006,41106,41105
31006, 31006,31007,31107,31106, 41006,41007,41107,41106
31007, 31007,31008,31108,31107, 41007,41008,41108,41107
31008, 31008,31009,31109,31108, 41008,41009,41109,41108
31009, 31009,31010,31110,31109, 41009,41010,41110,41109
31010, 31010,31011,31111,31110, 41010,41011,41111,41110
31011, 31011,31012,31112,31111, 41011,41012,41112,41111
31012, 31012,31013,31113,31112, 41012,41013,41113,41112
31101, 31101,31102,31202,31201, 41101,41102,41202,41201
31102, 31102,31103,31203,31202, 41102,41103,41203,41202
31103, 31103,31104,31204,31203, 41103,41104,41204,41203
31104, 31104,31105,31205,31204, 41104,41105,41205,41204
31105, 31105,31106,31206,31205, 41105,41106,41206,41205
31106, 31106,31107,31207,31206, 41106,41107,41207,41206
31107, 31107,31108,31208,31207, 41107,41108,41208,41207
31108, 31108,31109,31209,31208, 41108,41109,41209,41208
31109, 31109,31110,31210,31209, 41109,41110,41210,41209
31110, 31110,31111,31211,31210, 41110,41111,41211,41210
31111, 31111,31112,31212,31211, 41111,41112,41212,41211
31112, 31112,31113,31213,31212, 41112,41113,41213,41212
40001, 40001,40002,40102,40101, 50001,50002,50102,50101
40002, 40002,40003,40103,40102, 50002,50003,50103,50102
40003, 40003,40004,40104,40103, 50003,50004,50104,50103
40004, 40004,40005,40105,40104, 50004,50005,50105,50104
40005, 40005,40006,40106,40105, 50005,50006,50106,50105
40006, 40006,40007,40107,40106, 50006,50007,50107,50106
40007, 40007,40008,40108,40107, 50007,50008,50108,50107
40008, 40008,40009,40109,40108, 50008,50009,50109,50108
40009, 40009,40010,40110,40109, 50009,50010,50110,50109
40010, 40010,40011,40111,40110, 50010,50011,50111,50110
40011, 40011,40012,40112,40111, 50011,50012,50112,50111
40012, 40012,40013,40113,40112, 50012,50013,50113,50112
40101, 40101,40102,40202,40201, 50101,50102,50202,50201
40102, 40102,40103,40203,40202, 50102,50103,50203,50202
40103, 40103,40104,40204,40203, 50103,50104,50204,50203
40104, 40104,40105,40205,40204, 50104,50105,50205,50204
40105, 40105,40106,40206,40205, 50105,50106,50206,50205
40106, 40106,40107,40207,40206, 50106,50107,50207,50206
40107, 40107,40108,40208,40207, 50107,50108,50208,50207
40108, 40108,40109,40209,40208, 50108,50109,50209,50208
40109, 40109,40110,40210,40209, 50109,50110,50210,50209
40110, 40110,40111,40211,40210, 50110,50111,50211,50210
40111, 40111,40112,40212,40211, 50111,50112,50212,50211
40112, 40112,40113,40213,40212, 50112,50113,50213,50212
40201, 40201,40202,40302,40301, 50201,50202,50302,50301
40202, 40202,40203,40303,40302, 50202,50203,50303,50302
40203, 40203,40204,40304,40303, 50203,50204,50304,50303
40204, 40204,40205,40305,40304, 50204,50205,50305,50304
40205, 40205,40206,40306,40305, 50205,50206,50306,50305
40206, 40206,40207,40307,40306, 50206,50207,50307,50306
40207, 40207,40208,40308,40307, 50207,50208,50308,50307
40208, 40208,40209,40309,40308, 50208,50209,50309,50308
40209, 40209,40210,40310,40309, 50209,50210,50310,50309
40210, 40210,40211,40311,40310, 50210,50211,50311,50310
40211, 40211,40212,40312,40311, 50211,50212,50312,50311
40212, 40212,40213,40313,40312, 50212,50213,50313,50312
40301, 40301,40302,40402,40401, 50301,50302,50402,50401
40302, 40302,40303,40403,40402, 50302,50303,50403,50402
40303, 40303,40304,40404,40403, 50303,50304,50404,50403
40304, 40304,40305,40405,40404, 50304,50305,50405,50404
40305, 40305,40306,40406,40405, 50305,50306,50406,50405
40306, 40306,40307,40407,40406, 50306,50307,50407,50406
40307, 40307,40308,40408,40407, 50307,50308,50408,50407
40308, 40308,40309,40409,40408, 50308,50309,50409,50408
40309, 40309,40310,40410,40409, 50309,50310,50410,50409
40310, 40310,40311,40411,40410, 50310,50311,50411,50410
40311, 40311,40312,40412,40411, 50311,50312,50412,50411
40312, 40312,40313,40413,40412, 50312,50313,50413,50412
40401, 40401,40402,40502,40501, 50401,50402,50502,50501
40402, 40402,40403,40503,40502, 50402,50403,50503,50502
40403, 40403,40404,40504,40503, 50403,50404,50504,50503
40404, 40404,40405,40505,40504, 50404,50405,50505,50504
40405, 40405,40406,40506,40505, 50405,50406,50506,50505
40406, 40406,40407,40507,40506, 50406,50407,50507,50506
40407, 40407,40408,40508,40507, 50407,50408,50508,50507
40408, 40408,40409,40509,40508, 50408,50409,50509,50508
40409, 40409,40410,40510,40509, 50409,50410,50510,50509
40410, 40410,40411,40511,40510, 50410,50411,50511,50510
40411, 40411,40412,40512,40511, 50411,50412,50512,50511
40412, 40412,40413,40513,40512, 50412,50413,50513,50512
40501, 40501,40502,40602,40601, 50501,50502,50602,50601
40502, 40502,40503,40603,40602, 50502,50503,50603,50602
40503, 40503,40504,40604,40603, 50503,50504,50604,50603
40504, 40504,40505,40605,40604, 50504,50505,50605,50604
40505, 40505,40506,40606,40605, 50505,50506,50606,50605
40506, 40506,40507,40607,40606, 50506,50507,50607,50606
40507, 40507,40508,40608,40607, 50507,50508,50608,50607
40508, 40508,40509,40609,40608, 50508,50509,50609,50608
40509, 40509,40510,40610,40609, 50509,50510,50610,50609
40510, 40510,40511,40611,40610, 50510,50511,50611,50610
40511, 40511,40512,40612,40611, 50511,50512,50612,50611
40512, 40512,40513,40613,40612, 50512,50513,50613,50612
40601, 40601,40602,40702,40701, 50601,50602,50702,50701
40602, 40602,40603,40703,40702, 50602,50603,50703,50702
40603, 40603,40604,40704,40703, 50603,50604,50704,50703
40604, 40604,40605,40705,40704, 50604,50605,50705,50704
40605, 40605,40606,40706,40705, 50605,50606,50706,50705
40606, 40606,40607,40707,40706, 50606,50607,50707,50706
40607, 40607,40608,40708,40707, 50607,50608,50708,50707
40608, 40608,40609,40709,40708, 50608,50609,50709,50708
40609, 40609,40610,40710,40709, 50609,50610,50710,50709
40610, 40610,40611,40711,40710, 50610,50611,50711,50710
40611, 40611,40612,40712,40711, 50611,50612,50712,50711
40612, 40612,40613,40713,40712, 50612,50613,50713,50712
40701, 40701,40702,40802,40801, 50701,50702,50802,50801
40702, 40702,40703,40803,40802, 50702,50703,50803,50802
40703, 40703,40704,40804,40803, 50703,50704,50804,50803
40704, 40704,40705,40805,40804, 50704,50705,50805,50804
40705, 40705,40706,40806,40805, 50705,50706,50806,50805
40706, 40706,40707,40807,40806, 50706,50707,50807,50806
40707, 40707,40708,40808,40807, 50707,50708,50808,50807
40708, 40708,40709,40809,40808, 50708,50709,50809,50808
40709, 40709,40710,40810,40809, 50709,50710,50810,50809
40710, 40710,40711,40811,40810, 50710,50711,50811,50810
40711, 40711,40712,40812,40811, 50711,50712,50812,50811
40712, 40712,40713,40813,40812, 50712,50713,50813,50812
40801, 40801,40802,40902,40901, 50801,50802,50902,50901
40802, 40802,40803,40903,40902, 50802,50803,50903,50902
40803, 40803,40804,40904,40903, 50803,50804,50904,50903
40804, 40804,40805,40905,40904, 50804,50805,50905,50904
40805, 40805,40806,40906,40905, 50805,50806,50906,50905
40806, 40806,40807,40907,40906, 50806,50807,50907,50906
40807, 40807,40808,40908,40907, 50807,50808,50908,50907
40808, 40808,40809,40909,40908, 50808,50809,50909,50908
40809, 40809,40810,40910,40909, 50809,50810,50910,50909
40810, 40810,40811,40911,40910, 50810,50811,50911,50910
40811, 40811,40812,40912,40911, 50811,50812,50912,50911
40812, 40812,40813,40913,40912, 50812,50813,50913,50912
40901, 40901,40902,41002,41001, 50901,50902,51002,51001
40902, 40902,40903,41003,41002, 50902,50903,51003,51002
40903, 40903,40904,41004,41003, 50903,50904,51004,51003
40904, 40904,40905,41005,41004, 50904,50905,51005,51004
40905, 40905,40906,41006,41005, 50905,50906,51006,51005
40906, 40906,40907,41007,41006, 50906,50907,51007,51006
40907, 40907,40908,41008,41007, 50907,50908,51008,51007
40908, 40908,40909,41009,41008, 50908,50909,51009,51008
40909, 40909,40910,41010,41009, 50909,50910,51010,51009
40910, 40910,40911,41011,41010, 50910,50911,51011,51010
40911, 40911,40912,41012,41011, 50911,50912,51012,51011
40912, 40912,40913,41013,41012, 50912,50913,51013,51012
41001, 41001,41002,41102,41101, 51001,51002,51102,51101
41002, 41002,41003,41103,41102, 51002,51003,51103,51102
41003, 41003,41004,41104,41103, 51003,51004,51104,51103
41004, 41004,41005,41105,41104, 51004,51005,51105,51104
41005, 41005,41006,41106,41105, 51005,51006,51106,51105
41006, 41006,41007,41107,41106, 51006,51007,51107,51106
41007, 41007,41008,41108,41107, 51007,51008,51108,51107
41008, 41008,41009,41109,41108, 51008,51009,51109,51108
41009, 41009,41010,41110,41109, 51009,51010,51110,51109
41010, 41010,41011,41111,41110, 51010,51011,51111,51110
41011, 41011,41012,41112,41111, 51011,51012,51112,51111
41012, 41012,41013,41113,41112, 51012,51013,51113,51112
41101, 41101,41102,41202,41201, 51101,51102,51202,51201
41102, 41102,41103,41203,41202, 51102,51103,51203,51202
41103, 41103,41104,41204,41203, 51103,51104,51204,51203
41104, 41104,41105,41205,41204, 51104,51105,51205,51204
41105, 41105,41106,41206,41205, 51105,51106,51206,51205
41106, 41106,41107,41207,41206, 51106,51107,51207,51206
41107, 41107,41108,41208,41207, 51107,51108,51208,51207
41108, 41108,41109,41209,41208, 51108,51109,51209,51208
41109, 41109,41110,41210,41209, 51109,51110,51210,51209
41110, 41110,41111,41211,41210, 51110,51111,51211,51210
41111, 41111,41112,41212,41211, 51111,51112,51212,51211
41112, 41112,41113,41213,41212, 51112,51113,51213,51212
50001, 50001,50002,50102,50101, 60001,60002,60102,60101
50002, 50002,50003,50103,50102, 60002,60003,60103,60102
50003, 50003,50004,50104,50103, 60003,60004,60104,60103
50004, 50004,50005,50105,50104, 60004,60005,60105,60104
50005, 50005,50006,50106,50105, 60005,60006,60106,60105
50006, 50006,50007,50107,50106, 60006,60007,60107,60106
50007, 50007,50008,50108,50107, 60007,60008,60108,60107
50008, 50008,50009,50109,50108, 60008,60009,60109,60108
50009, 50009,50010,50110,50109, 60009,60010,60110,60109
50010, 50010,50011,50111,50110, 60010,60011,60111,60110
50011, 50011,50012,50112,50111, 60011,60012,60112,60111
50012, 50012,50013,50113,50112, 60012,60013,60113,60112
50101, 50101,50102,50202,50201, 60101,60102,60202,60201
50102, 50102,50103,50203,50202, 60102,60103,60203,60202
50103, 50103,50104,50204,50203, 60103,60104,60204,60203
50104, 50104,50105,50205,50204, 60104,60105,60205,60204
50105, 50105,50106,50206,50205, 60105,60106,60206,60205
50106, 50106,50107,50207,50206, 60106,60107,60207,60206
50107, 50107,50108,50208,50207, 60107,60108,60208,60207
50108, 50108,50109,50209,50208, 60108,60109,60209,60208
50109, 50109,50110,50210,50209, 60109,60110,60210,60209
50110, 50110,50111,50211,50210, 60110,60111,60211,60210
50111, 50111,50112,50212,50211, 60111,60112,60212,60211
50112, 50112,50113,50213,50212, 60112,60113,60213,60212
50201, 50201,50202,50302,50301, 60201,60202,60302,60301
50202, 50202,50203,50303,50302, 60202,60203,60303,60302
50203, 50203,50204,50304,50303, 60203,60204,60304,60303
50204, 50204,50205,50305,50304, 60204,60205,60305,60304
50205, 50205,50206,50306,50305, 60205,60206,60306,60305
50206, 50206,50207,50307,50306, 60206,60207,60307,60306
50207, 50207,50208,50308,50307, 60207,60208,60308,60307
50208, 50208,50209,50309,50308, 60208,60209,60309,60308
50209, 50209,50210,50310,50309, 60209,60210,60310,60309
50210, 50210,50211,50311,50310, 60210,60211,60311,60310
50211, 50211,50212,50312,50311, 60211,60212,60312,60311
50212, 50212,50213,50313,50312, 60212,60213,60313,60312
50301, 50301,50302,50402,50401, 60301,60302,60402,60401
50302, 50302,50303,50403,50402, 60302,60303,60403,60402
50303, 50303,50304,50404,50403, 60303,60304,60404,60403
50304, 50304,50305,50405,50404, 60304,60305,60405,60404
50305, 50305,50306,50406,50405, 60305,60306,60406,60405
50306, 50306,50307,50407,50406, 60306,60307,60407,60406
50307, 50307,50308,50408,50407, 60307,60308,60408,60407
50308, 50308,50309,50409,50408, 60308,60309,60409,60408
50309, 50309,50310,50410,50409, 60309,60310,60410,60409
50310, 50310,50311,50411,50410, 60310,60311,60411,60410
50311, 50311,50312,50412,50411, 60311,60312,60412,60411
50312, 50312,50313,50413,50412, 60312,60313,60413,60412
50401, 50401,50402,50502,50501, 60401,60402,60502,60501
50402, 50402,50403,50503,50502, 60402,60403,60503,60502
50403, 50403,50404,50504,50503, 60403,60404,60504,60503
50404, 50404,50405,50505,50504, 60404,60405,60505,60504
50405, 50405,50406,50506,50505, 60405,60406,60506,60505
50406, 50406,50407,50507,50506, 60406,60407,60507,60506
50407, 50407,50408,50508,50507, 60407,60408,60508,60507
50408, 50408,50409,50509,50508, 60408,60409,60509,60508
50409, 50409,50410,50510,50509, 60409,60410,60510,60509
50410, 50410,50411,50511,50510, 60410,60411,60511,60510
50411, 50411,50412,50512,50511, 60411,60412,60512,60511
50412, 50412,50413,50513,50512, 60412,60413,60513,60512
50501, 50501,50502,50602,50601, 60501,60502,60602,60601
50502, 50502,50503,50603,50602, 60502,60503,60603,60602
50503, 50503,50504,50604,50603, 60503,60504,60604,60603
50504, 50504,50505,50605,50604, 60504,60505,60605,60604
50505, 50505,50506,50606,50605, 60505,60506,60606,60605
50506, 50506,50507,50607,50606, 60506,60507,60607,60606
50507, 50507,50508,50608,50607, 60507,60508,60608,60607
50508, 50508,50509,50609,50608, 60508,60509,60609,60608
50509, 50509,50510,50610,50609, 60509,60510,60610,60609
50510, 50510,50511,50611,50610, 60510,60511,60611,60610
50511, 50511,50512,50612,50611, 60511,60512,60612,60611
50512, 50512,50513,50613,50612, 60512,60513,60613,60612
50601, 50601,50602,50702,50701, 60601,60602,60702,60701
50602, 50602,50603,50703,50702, 60602,60603,60703,60702
50603, 50603,50604,50704,50703, 60603,60604,60704,60703
50604, 50604,50605,50705,50704, 60604,60605,60705,60704
50605, 50605,50606,50706,50705, 60605,60606,60706,60705
50606, 50606,50607,50707,50706, 60606,60607,60707,60706
50607, 50607,50608,50708,50707, 60607,60608,60708,60707
50608, 50608,50609,50709,50708, 60608,60609,60709,60708
50609, 50609,50610,50710,50709, 60609,60610,60710,60709
50610, 50610,50611,50711,50710, 60610,60611,60711,60710
50611, 50611,50612,50712,50711, 60611,60612,60712,60711
50612, 50612,50613,50713,50712, 60612,60613,60713,60712
50701, 50701,50702,50802,50801, 60701,60702,60802,60801
50702, 50702,50703,50803,50802, 60702,60703,60803,60802
50703, 50703,50704,50804,50803, 60703,60704,60804,60803
50704, 50704,50705,50805,50804, 60704,60705,60805,60804
50705, 50705,50706,50806,50805, 60705,60706,60806,60805
50706, 50706,50707,50807,50806, 60706,60707,60807,60806
50707, 50707,50708,50808,50807, 60707,60708,60808,60807
50708, 50708,50709,50809,50808, 60708,60709,60809,60808
50709, 50709,50710,50810,50809, 60709,60710,60810,60809
50710, 50710,50711,50811,50810, 60710,60711,60811,60810
50711, 50711,50712,50812,50811, 60711,60712,60812,60811
50712, 50712,50713,50813,50812, 60712,60713,60813,60812
50801, 50801,50802,50902,50901, 60801,60802,60902,60901
50802, 50802,50803,50903,50902, 60802,60803,60903,60902
50803, 50803,50804,50904,50903, 60803,60804,60904,60903
50804, 50804,50805,50905,50904, 60804,60805,60905,60904
50805, 50805,50806,50906,50905, 60805,60806,60906,60905
50806, 50806,50807,50907,50906, 60806,60807,60907,60906
50807, 50807,50808,50908,50907, 60807,60808,60908,60907
50808, 50808,50809,50909,50908, 60808,60809,60909,60908
50809, 50809,50810,50910,50909, 60809,60810,60910,60909
50810, 50810,50811,50911,50910, 60810,60811,60911,60910
50811, 50811,50812,50912,50911, 60811,60812,60912,60911
50812, 50812,50813,50913,50912, 60812,60813,60913,60912
50901, 50901,50902,51002,51001, 60901,60902,61002,61001
50902, 50902,50903,51003,51002, 60902,60903,61003,61002
50903, 50903,50904,51004,51003, 60903,60904,61004,61003
50904, 50904,50905,51005,51004, 60904,60905,61005,61004
50905, 50905,50906,51006,51005, 60905,60906,61006,61005
50906, 50906,50907,51007,51006, 60906,60907,61007,61006
50907, 50907,50908,51008,51007, 60907,60908,61008,61007
50908, 50908,50909,51009,51008, 60908,60909,61009,61008
50909, 50909,50910,51010,51009, 60909,60910,61010,61009
50910, 50910,50911,51011,51010, 60910,60911,61011,61010
50911, 50911,50912,51012,51011, 60911,60912,61012,61011
50912, 50912,50913,51013,51012, 60912,60913,61013,61012
51001, 51001,51002,51102,51101, 61001,61002,61102,61101
51002, 51002,51003,51103,51102, 61002,61003,61103,61102
51003, 51003,51004,51104,51103, 61003,61004,61104,61103
51004, 51004,51005,51105,51104, 61004,61005,61105,61104
51005, 51005,51006,51106,51105, 61005,61006,61106,61105
51006, 51006,51007,51107,51106, 61006,61007,61107,61106
51007, 51007,51008,51108,51107, 61007,61008,61108,61107
51008, 51008,51009,51109,51108, 61008,61009,61109,61108
51009, 51009,51010,51110,51109, 61009,61010,61110,61109
51010, 51010,51011,51111,51110, 61010,61011,61111,61110
51011, 51011,51012,51112,51111, 61011,61012,61112,61111
51012, 51012,51013,51113,51112, 61012,61013,61113,61112
51101, 51101,51102,51202,51201, 61101,61102,61202,61201
51102, 51102,51103,51203,51202, 61102,61103,61203,61202
51103, 51103,51104,51204,51203, 61103,61104,61204,61203
51104, 51104,51105,51205,51204, 61104,61105,61205,61204
51105, 51105,51106,51206,51205, 61105,61106,61206,61205
51106, 51106,51107,51207,51206, 61106,61107,61207,61206
51107, 51107,51108,51208,51207, 61107,61108,61208,61207
51108, 51108,51109,51209,51208, 61108,61109,61209,61208
51109, 51109,51110,51210,51209, 61109,61110,61210,61209
51110, 51110,51111,51211,51210, 61110,61111,61211,61210
51111, 51111,51112,51212,51211, 61111,61112,61212,61211
51112, 51112,51113,51213,51212, 61112,61113,61213,61212
60001, 60001,60002,60102,60101, 70001,70002,70102,70101
60002, 60002,60003,60103,60102, 70002,70003,70103,70102
60003, 60003,60004,60104,60103, 70003,70004,70104,70103
60004, 60004,60005,60105,60104, 70004,70005,70105,70104
60005, 60005,60006,60106,60105, 70005,70006,70106,70105
60006, 60006,60007,60107,60106, 70006,70007,70107,70106
60007, 60007,60008,60108,60107, 70007,70008,70108,70107
60008, 60008,60009,60109,60108, 70008,70009,70109,70108
60009, 60009,60010,60110,60109, 70009,70010,70110,70109
60010, 60010,60011,60111,60110, 70010,70011,70111,70110
60011, 60011,60012,60112,60111, 70011,70012,70112,70111
60012, 60012,60013,60113,60112, 70012,70013,70113,70112
60101, 60101,60102,60202,60201, 70101,70102,70202,70201
60102, 60102,60103,60203,60202, 70102,70103,70203,70202
60103, 60103,60104,60204,60203, 70103,70104,70204,70203
60104, 60104,60105,60205,60204, 70104,70105,70205,70204
60105, 60105,60106,60206,60205, 70105,70106,70206,70205
60106, 60106,60107,60207,60206, 70106,70107,70207,70206
60107, 60107,60108,60208,60207, 70107,70108,70208,70207
60108, 60108,60109,60209,60208, 70108,70109,70209,70208
60109, 60109,60110,60210,60209, 70109,70110,70210,70209
60110, 60110,60111,60211,60210, 70110,70111,70211,70210
60111, 60111,60112,60212,60211, 70111,70112,70212,70211
60112, 60112,60113,60213,60212, 70112,70113,70213,70212
60201, 60201,60202,60302,60301, 70201,70202,70302,70301
60202, 60202,60203,60303,60302, 70202,70203,70303,70302
60203, 60203,60204,60304,60303, 70203,70204,70304,70303
60204, 60204,60205,60305,60304, 70204,70205,70305,70304
60205, 60205,60206,60306,60305, 70205,70206,70306,70305
60206, 60206,60207,60307,60306, 70206,70207,70307,70306
60207, 60207,60208,60308,60307, 70207,70208,70308,70307
60208, 60208,60209,60309,60308, 70208,70209,70309,70308
60209, 60209,60210,60310,60309, 70209,70210,70310,70309
60210, 60210,60211,60311,60310, 70210,70211,70311,70310
60211, 60211,60212,60312,60311, 70211,70212,70312,70311
60212, 60212,60213,60313,60312, 70212,70213,70313,70312
60301, 60301,60302,60402,60401, 70301,70302,70402,70401
60302, 60302,60303,60403,60402, 70302,70303,70403,70402
60303, 60303,60304,60404,60403, 70303,70304,70404,70403
60304, 60304,60305,60405,60404, 70304,70305,70405,70404
60305, 60305,60306,60406,60405, 70305,70306,70406,70405
60306, 60306,60307,60407,60406, 70306,70307,70407,70406
60307, 60307,60308,60408,60407, 70307,70308,70408,70407
60308, 60308,60309,60409,60408, 70308,70309,70409,70408
60309, 60309,60310,60410,60409, 70309,70310,70410,70409
60310, 60310,60311,60411,60410, 70310,70311,70411,70410
60311, 60311,60312,60412,60411, 70311,70312,70412,70411
60312, 60312,60313,60413,60412, 70312,70313,70413,70412
60401, 60401,60402,60502,60501, 70401,70402,70502,70501
60402, 60402,60403,60503,60502, 70402,70403,70503,70502
60403, 60403,60404,60504,60503, 70403,70404,70504,70503
60404, 60404,60405,60505,60504, 70404,70405,70505,70504
60405, 60405,60406,60506,60505, 70405,70406,70506,70505
60406, 60406,60407,60507,60506, 70406,70407,70507,70506
60407, 60407,60408,60508,60507, 70407,70408,70508,70507
60408, 60408,60409,60509,60508, 70408,70409,70509,70508
60409, 60409,60410,60510,60509, 70409,70410,70510,70509
60410, 60410,60411,60511,60510, 70410,70411,70511,70510
60411, 60411,60412,60512,60511, 70411,70412,70512,70511
60412, 60412,60413,60513,60512, 70412,70413,70513,70512
60501, 60501,60502,60602,60601, 70501,70502,70602,70601
60502, 60502,60503,60603,60602, 70502,70503,70603,70602
60503, 60503,60504,60604,60603, 70503,70504,70604,70603
60504, 60504,60505,60605,60604, 70504,70505,70605,70604
60505, 60505,60506,60606,60605, 70505,70506,70606,70605
60506, 60506,60507,60607,60606, 70506,70507,70607,70606
60507, 60507,60508,60608,60607, 70507,70508,70608,70607
60508, 60508,60509,60609,60608, 70508,70509,70609,70608
60509, 60509,60510,60610,60609, 70509,70510,70610,70609
60510, 60510,60511,60611,60610, 70510,70511,70611,70610
60511, 60511,60512,60612,60611, 70511,70512,70612,70611
60512, 60512,60513,60613,60612, 70512,70513,70613,70612
60601, 60601,60602,60702,60701, 70601,70602,70702,70701
60602, 60602,60603,60703,60702, 70602,70603,70703,70702
60603, 60603,60604,60704,60703, 70603,70604,70704,70703
60604, 60604,60605,60705,60704, 70604,70605,70705,70704
60605, 60605,60606,60706,60705, 70605,70606,70706,70705
60606, 60606,60607,60707,60706, 70606,70607,70707,70706
60607, 60607,60608,60708,60707, 70607,70608,70708,70707
60608, 60608,60609,60709,60708, 70608,70609,70709,70708
60609, 60609,60610,60710,60709, 70609,70610,70710,70709
60610, 60610,60611,60711,60710, 70610,70611,70711,70710
60611, 60611,60612,60712,60711, 70611,70612,70712,70711
60612, 60612,60613,60713,60712, 70612,70613,70713,70712
60701, 60701,60702,60802,60801, 70701,70702,70802,70801
60702, 60702,60703,60803,60802, 70702,70703,70803,70802
60703, 60703,60704,60804,60803, 70703,70704,70804,70803
60704, 60704,60705,60805,60804, 70704,70705,70805,70804
60705, 60705,60706,60806,60805, 70705,70706,70806,70805
60706, 60706,60707,60807,60806, 70706,70707,70807,70806
60707, 60707,60708,60808,60807, 70707,70708,70808,70807
60708, 60708,60709,60809,60808, 70708,70709,70809,70808
60709, 60709,60710,60810,60809, 70709,70710,70810,70809
60710, 60710,60711,60811,60810, 70710,70711,70811,70810
60711, 60711,60712,60812,60811, 70711,70712,70812,70811
60712, 60712,60713,60813,60812, 70712,70713,70813,70812
60801, 60801,60802,60902,60901, 70801,70802,70902,70901
60802, 60802,60803,60903,60902, 70802,70803,70903,70902
60803, 60803,60804,60904,60903, 70803,70804,70904,70903
60804, 60804,60805,60905,60904, 70804,70805,70905,70904
60805, 60805,60806,60906,60905, 70805,70806,70906,70905
60806, 60806,60807,60907,60906, 70806,70807,70907,70906
60807, 60807,60808,60908,60907, 70807,70808,70908,70907
60808, 60808,60809,60909,60908, 70808,70809,70909,70908
60809, 60809,60810,60910,60909, 70809,70810,70910,70909
60810, 60810,60811,60911,60910, 70810,70811,70911,70910
60811, 60811,60812,60912,60911, 70811,70812,70912,70911
60812, 60812,60813,60913,60912, 70812,70813,70913,70912
60901, 60901,60902,61002,61001, 70901,70902,71002,71001
60902, 60902,60903,61003,61002, 70902,70903,71003,71002
60903, 60903,60904,61004,61003, 70903,70904,71004,71003
60904, 60904,60905,61005,61004, 70904,70905,71005,71004
60905, 60905,60906,61006,61005, 70905,70906,71006,71005
60906, 60906,60907,61007,61006, 70906,70907,71007,71006
60907, 60907,60908,61008,61007, 70907,70908,71008,71007
60908, 60908,60909,61009,61008, 70908,70909,71009,71008
60909, 60909,60910,61010,61009, 70909,70910,71010,71009
60910, 60910,60911,61011,61010, 70910,70911,71011,71010
60911, 60911,60912,61012,61011, 70911,70912,71012,71011
60912, 60912,60913,61013,61012, 70912,70913,71013,71012
61001, 61001,61002,61102,61101, 71001,71002,71102,71101
61002, 61002,61003,61103,61102, 71002,71003,71103,71102
61003, 61003,61004,61104,61103, 71003,71004,71104,71103
61004, 61004,61005,61105,61104, 71004,71005,71105,71104
61005, 61005,61006,61106,61105, 71005,71006,71106,71105
61006, 61006,61007,61107,61106, 71006,71007,71107,71106
61007, 61007,61008,61108,61107, 71007,71008,71108,71107
61008, 61008,61009,61109,61108, 71008,71009,71109,71108
61009, 61009,61010,61110,61109, 71009,71010,71110,71109
61010, 61010,61011,61111,61110, 71010,71011,71111,71110
61011, 61011,61012,61112,61111, 71011,71012,71112,71111
61012, 61012,61013,61113,61112, 71012,71013,71113,71112
61101, 61101,61102,61202,61201, 71101,71102,71202,71201
61102, 61102,61103,61203,61202, 71102,71103,71203,71202
61103, 61103,61104,61204,61203, 71103,71104,71204,71203
61104, 61104,61105,61205,61204, 71104,71105,71205,71204
61105, 61105,61106,61206,61205, 71105,71106,71206,71205
61106, 61106,61107,61207,61206, 71106,71107,71207,71206
61107, 61107,61108,61208,61207, 71107,71108,71208,71207
61108, 61108,61109,61209,61208, 71108,71109,71209,71208
61109, 61109,61110,61210,61209, 71109,71110,71210,71209
61110, 61110,61111,61211,61210, 71110,71111,71211,71210
61111, 61111,61112,61212,61211, 71111,71112,71212,71211
61112, 61112,61113,61213,61212, 71112,71113,71213,71212
70001, 70001,70002,70102,70101, 80001,80002,80102,80101
70002, 70002,70003,70103,70102, 80002,80003,80103,80102
70003, 70003,70004,70104,70103, 80003,80004,80104,80103
70004, 70004,70005,70105,70104, 80004,80005,80105,80104
70005, 70005,70006,70106,70105, 80005,80006,80106,80105
70006, 70006,70007,70107,70106, 80006,80007,80107,80106
70007, 70007,70008,70108,70107, 80007,80008,80108,80107
70008, 70008,70009,70109,70108, 80008,80009,80109,80108
70009, 70009,70010,70110,70109, 80009,80010,80110,80109
70010, 70010,70011,70111,70110, 80010,80011,80111,80110
70011, 70011,70012,70112,70111, 80011,80012,80112,80111
70012, 70012,70013,70113,70112, 80012,80013,80113,80112
70101, 70101,70102,70202,70201, 80101,80102,80202,80201
70102, 70102,70103,70203,70202, 80102,80103,80203,80202
70103, 70103,70104,70204,70203, 80103,80104,80204,80203
70104, 70104,70105,70205,70204, 80104,80105,80205,80204
70105, 70105,70106,70206,70205, 80105,80106,80206,80205
70106, 70106,70107,70207,70206, 80106,80107,80207,80206
70107, 70107,70108,70208,70207, 80107,80108,80208,80207
70108, 70108,70109,70209,70208, 80108,80109,80209,80208
70109, 70109,70110,70210,70209, 80109,80110,80210,80209
70110, 70110,70111,70211,70210, 80110,80111,80211,80210
70111, 70111,70112,70212,70211, 80111,80112,80212,80211
70112, 70112,70113,70213,70212, 80112,80113,80213,80212
70201, 70201,70202,70302,70301, 80201,80202,80302,80301
70202, 70202,70203,70303,70302, 80202,80203,80303,80302
70203, 70203,70204,70304,70303, 80203,80204,80304,80303
70204, 70204,70205,70305,70304, 80204,80205,80305,80304
70205, 70205,70206,70306,70305, 80205,80206,80306,80305
70206, 70206,70207,70307,70306, 80206,80207,80307,80306
70207, 70207,70208,70308,70307, 80207,80208,80308,80307
70208, 70208,70209,70309,70308, 80208,80209,80309,80308
70209, 70209,70210,70310,70309, 80209,80210,80310,80309
70210, 70210,70211,70311,70310, 80210,80211,80311,80310
70211, 70211,70212,70312,70311, 80211,80212,80312,80311
70212, 70212,70213,70313,70312, 80212,80213,80313,80312
70301, 70301,70302,70402,70401, 80301,80302,80402,80401
70302, 70302,70303,70403,70402, 80302,80303,80403,80402
70303, 70303,70304,70404,70403, 80303,80304,80404,80403
70304, 70304,70305,70405,70404, 80304,80305,80405,80404
70305, 70305,70306,70406,70405, 80305,80306,80406,80405
70306, 70306,70307,70407,70406, 80306,80307,80407,80406
70307, 70307,70308,70408,70407, 80307,80308,80408,80407
70308, 70308,70309,70409,70408, 80308,80309,80409,80408
70309, 70309,70310,70410,70409, 80309,80310,80410,80409
70310, 70310,70311,70411,70410, 80310,80311,80411,80410
70311, 70311,70312,70412,70411, 80311,80312,80412,80411
70312, 70312,70313,70413,70412, 80312,80313,80413,80412
70401, 70401,70402,70502,70501, 80401,80402,80502,80501
70402, 70402,70403,70503,70502, 80402,80403,80503,80502
70403, 70403,70404,70504,70503, 80403,80404,80504,80503
70404, 70404,70405,70505,70504, 80404,80405,80505,80504
70405, 70405,70406,70506,70505, 80405,80406,80506,80505
70406, 70406,70407,70507,70506, 80406,80407,80507,80506
70407, 70407,70408,70508,70507, 80407,80408,80508,80507
70408, 70408,70409,70509,70508, 80408,80409,80509,80508
70409, 70409,70410,70510,70509, 80409,80410,80510,80509
70410, 70410,70411,70511,70510, 80410,80411,80511,80510
70411, 70411,70412,70512,70511, 80411,80412,80512,80511
70412, 70412,70413,70513,70512, 80412,80413,80513,80512
70501, 70501,70502,70602,70601, 80501,80502,80602,80601
70502, 70502,70503,70603,70602, 80502,80503,80603,80602
70503, 70503,70504,70604,70603, 80503,80504,80604,80603
70504, 70504,70505,70605,70604, 80504,80505,80605,80604
70505, 70505,70506,70606,70605, 80505,80506,80606,80605
70506, 70506,70507,70607,70606, 80506,80507,80607,80606
70507, 70507,70508,70608,70607, 80507,80508,80608,80607
70508, 70508,70509,70609,70608, 80508,80509,80609,80608
70509, 70509,70510,70610,70609, 80509,80510,80610,80609
70510, 70510,70511,70611,70610, 80510,80511,80611,80610
70511, 70511,70512,70612,70611, 80511,80512,80612,80611
70512, 70512,70513,70613,70612, 80512,80513,80613,80612
70601, 70601,70602,70702,70701, 80601,80602,80702,80701
70602, 70602,70603,70703,70702, 80602,80603,80703,80702
70603, 70603,70604,70704,70703, 80603,80604,80704,80703
70604, 70604,70605,70705,70704, 80604,80605,80705,80704
70605, 70605,70606,70706,70705, 80605,80606,80706,80705
70606, 70606,70607,70707,70706, 80606,80607,80707,80706
70607, 70607,70608,70708,70707, 80607,80608,80708,80707
70608, 70608,70609,70709,70708, 80608,80609,80709,80708
70609, 70609,70610,70710,70709, 80609,80610,80710,80709
70610, 70610,70611,70711,70710, 80610,80611,80711,80710
70611, 70611,70612,70712,70711, 80611,80612,80712,80711
70612, 70612,70613,70713,70712, 80612,80613,80713,80712
70701, 70701,70702,70802,70801, 80701,80702,80802,80801
70702, 70702,70703,70803,70802, 80702,80703,80803,80802
70703, 70703,70704,70804,70803, 80703,80704,80804,80803
70704, 70704,70705,70805,70804, 80704,80705,80805,80804
70705, 70705,70706,70806,70805, 80705,80706,80806,80805
70706, 70706,70707,70807,70806, 80706,80707,80807,80806
70707, 70707,70708,70808,70807, 80707,80708,80808,80807
70708, 70708,70709,70809,70808, 80708,80709,80809,80808
70709, 70709,70710,70810,70809, 80709,80710,80810,80809
70710, 70710,70711,70811,70810, 80710,80711,80811,80810
70711, 70711,70712,70812,70811, 80711,80712,80812,80811
70712, 70712,70713,70813,70812, 80712,80713,80813,80812
70801, 70801,70802,70902,70901, 80801,80802,80902,80901
70802, 70802,70803,70903,70902, 80802,80803,80903,80902
70803, 70803,70804,70904,70903, 80803,80804,80904,80903
70804, 70804,70805,70905,70904, 80804,80805,80905,80904
70805, 70805,70806,70906,70905, 80805,80806,80906,80905
70806, 70806,70807,70907,70906, 80806,80807,80907,80906
70807, 70807,70808,70908,70907, 80807,80808,80908,80907
70808, 70808,70809,70909,70908, 80808,80809,80909,80908
70809, 70809,70810,70910,70909, 80809,80810,80910,80909
70810, 70810,70811,70911,70910, 80810,80811,80911,80910
70811, 70811,70812,70912,70911, 80811,80812,80912,80911
70812, 70812,70813,70913,70912, 80812,80813,80913,80912
70901, 70901,70902,71002,71001, 80901,80902,81002,81001
70902, 70902,70903,71003,71002, 80902,80903,81003,81002
70903, 70903,70904,71004,71003, 80903,80904,81004,81003
70904, 70904,70905,71005,71004, 80904,80905,81005,81004
70905, 70905,70906,71006,71005, 80905,80906,81006,81005
70906, 70906,70907,71007,71006, 80906,80907,81007,81006
70907, 70907,70908,71008,71007, 80907,80908,81008,81007
70908, 70908,70909,71009,71008, 80908,80909,81009,81008
70909, 70909,70910,71010,71009, 80909,80910,81010,81009
70910, 70910,70911,71011,71010, 80910,80911,81011,81010
70911, 70911,70912,71012,71011, 80911,80912,81012,81011
70912, 70912,70913,71013,71012, 80912,80913,81013,81012
71001, 71001,71002,71102,71101, 81001,81002,81102,81101
71002, 71002,71003,71103,71102, 81002,81003,81103,81102
71003, 71003,71004,71104,71103, 81003,81004,81104,81103
71004, 71004,71005,71105,71104, 81004,81005,81105,81104
71005, 71005,71006,71106,71105, 81005,81006,81106,81105
71006, 71006,71007,71107,71106, 81006,81007,81107,81106
71007, 71007,71008,71108,71107, 81007,81008,81108,81107
71008, 71008,71009,71109,71108, 81008,81009,81109,81108
71009, 71009,71010,71110,71109, 81009,81010,81110,81109
71010, 71010,71011,71111,71110, 81010,81011,81111,81110
71011, 71011,71012,71112,71111, 81011,81012,81112,81111
71012, 71012,71013,71113,71112, 81012,81013,81113,81112
71101, 71101,71102,71202,71201, 81101,81102,81202,81201
71102, 71102,71103,71203,71202, 81102,81103,81203,81202
71103, 71103,71104,71204,71203, 81103,81104,81204,81203
71104, 71104,71105,71205,71204, 81104,81105,81205,81204
71105, 71105,71106,71206,71205, 81105,81106,81206,81205
71106, 71106,71107,71207,71206, 81106,81107,81207,81206
71107, 71107,71108,71208,71207, 81107,81108,81208,81207
71108, 71108,71109,71209,71208, 81108,81109,81209,81208
71109, 71109,71110,71210,71209, 81109,81110,81210,81209
71110, 71110,71111,71211,71210, 81110,81111,81211,81210
71111, 71111,71112,71212,71211, 81111,81112,81212,81211
71112, 71112,71113,71213,71212, 81112,81113,81213,81212
80001, 80001,80002,80102,80101, 90001,90002,90102,90101
80002, 80002,80003,80103,80102, 90002,90003,90103,90102
80003, 80003,80004,80104,80103, 90003,90004,90104,90103
80004, 80004,80005,80105,80104, 90004,90005,90105,90104
80005, 80005,80006,80106,80105, 90005,90006,90106,90105
80006, 80006,80007,80107,80106, 90006,90007,90107,90106
80007, 80007,80008,80108,80107, 90007,90008,90108,90107
80008, 80008,80009,80109,80108, 90008,90009,90109,90108
80009, 80009,80010,80110,80109, 90009,90010,90110,90109
80010, 80010,80011,80111,80110, 90010,90011,90111,90110
80011, 80011,80012,80112,80111, 90011,90012,90112,90111
80012, 80012,80013,80113,80112, 90012,90013,90113,90112
80101, 80101,80102,80202,80201, 90101,90102,90202,90201
80102, 80102,80103,80203,80202, 90102,90103,90203,90202
80103, 80103,80104,80204,80203, 90103,90104,90204,90203
80104, 80104,80105,80205,80204, 90104,90105,90205,90204
80105, 80105,80106,80206,80205, 90105,90106,90206,90205
80106, 80106,80107,80207,80206, 90106,90107,90207,90206
80107, 80107,80108,80208,80207, 90107,90108,90208,90207
80108, 80108,80109,80209,80208, 90108,90109,90209,90208
80109, 80109,80110,80210,80209, 90109,90110,90210,90209
80110, 80110,80111,80211,80210, 90110,90111,90211,90210
80111, 80111,80112,80212,80211, 90111,90112,90212,90211
80112, 80112,80113,80213,80212, 90112,90113,90213,90212
80201, 80201,80202,80302,80301, 90201,90202,90302,90301
80202, 80202,80203,80303,80302, 90202,90203,90303,90302
80203, 80203,80204,80304,80303, 90203,90204,90304,90303
80204, 80204,80205,80305,80304, 90204,90205,90305,90304
80205, 80205,80206,80306,80305, 90205,90206,90306,90305
80206, 80206,80207,80307,80306, 90206,90207,90307,90306
80207, 80207,80208,80308,80307, 90207,90208,90308,90307
80208, 80208,80209,80309,80308, 90208,90209,90309,90308
80209, 80209,80210,80310,80309, 90209,90210,90310,90309
80210, 80210,80211,80311,80310, 90210,90211,90311,90310
80211, 80211,80212,80312,80311, 90211,90212,90312,90311
80212, 80212,80213,80313,80312, 90212,90213,90313,90312
80301, 80301,80302,80402,80401, 90301,90302,90402,90401
80302, 80302,80303,80403,80402, 90302,90303,90403,90402
80303, 80303,80304,80404,80403, 90303,90304,90404,90403
80304, 80304,80305,80405,80404, 90304,90305,90405,90404
80305, 80305,80306,80406,80405, 90305,90306,90406,90405
80306, 80306,80307,80407,80406, 90306,90307,90407,90406
80307, 80307,80308,80408,80407, 90307,90308,90408,90407
80308, 80308,80309,80409,80408, 90308,90309,90409,90408
80309, 80309,80310,80410,80409, 90309,90310,90410,90409
80310, 80310,80311,80411,80410, 90310,90311,90411,90410
80311, 80311,80312,80412,80411, 90311,90312,90412,90411
80312, 80312,80313,80413,80412, 90312,90313,90413,90412
80401, 80401,80402,80502,80501, 90401,90402,90502,90501
80402, 80402,80403,80503,80502, 90402,90403,90503,90502
80403, 80403,80404,80504,80503, 90403,90404,90504,90503
80404, 80404,80405,80505,80504, 90404,90405,90505,90504
80405, 80405,80406,80506,80505, 90405,90406,90506,90505
80406, 80406,80407,80507,80506, 90406,90407,90507,90506
80407, 80407,80408,80508,80507, 90407,90408,90508,90507
80408, 80408,80409,80509,80508, 90408,90409,90509,90508
80409, 80409,80410,80510,80509, 90409,90410,90510,90509
80410, 80410,80411,80511,80510, 90410,90411,90511,90510
80411, 80411,80412,80512,80511, 90411,90412,90512,90511
80412, 80412,80413,80513,80512, 90412,90413,90513,90512
80501, 80501,80502,80602,80601, 90501,90502,90602,90601
80502, 80502,80503,80603,80602, 90502,90503,90603,90602
80503, 80503,80504,80604,80603, 90503,90504,90604,90603
80504, 80504,80505,80605,80604, 90504,90505,90605,90604
80505, 80505,80506,80606,80605, 90505,90506,90606,90605
80506, 80506,80507,80607,80606, 90506,90507,90607,90606
80507, 80507,80508,80608,80607, 90507,90508,90608,90607
80508, 80508,80509,80609,80608, 90508,90509,90609,90608
80509, 80509,80510,80610,80609, 90509,90510,90610,90609
80510, 80510,80511,80611,80610, 90510,90511,90611,90610
80511, 80511,80512,80612,80611, 90511,90512,90612,90611
80512, 80512,80513,80613,80612, 90512,90513,90613,90612
80601, 80601,80602,80702,80701, 90601,90602,90702,90701
80602, 80602,80603,80703,80702, 90602,90603,90703,90702
80603, 80603,80604,80704,80703, 90603,90604,90704,90703
80604, 80604,80605,80705,80704, 90604,90605,90705,90704
80605, 80605,80606,80706,80705, 90605,90606,90706,90705
80606, 80606,80607,80707,80706, 90606,90607,90707,90706
80607, 80607,80608,80708,80707, 90607,90608,90708,90707
80608, 80608,80609,80709,80708, 90608,90609,90709,90708
80609, 80609,80610,80710,80709, 90609,90610,90710,90709
80610, 80610,80611,80711,80710, 90610,90611,90711,90710
80611, 80611,80612,80712,80711, 90611,90612,90712,90711
80612, 80612,80613,80713,80712, 90612,90613,90713,90712
80701, 80701,80702,80802,80801, 90701,90702,90802,90801
80702, 80702,80703,80803,80802, 90702,90703,90803,90802
80703, 80703,80704,80804,80803, 90703,90704,90804,90803
80704, 80704,80705,80805,80804, 90704,90705,90805,90804
80705, 80705,80706,80806,80805, 90705,90706,90806,90805
80706, 80706,80707,80807,80806, 90706,90707,90807,90806
80707, 80707,80708,80808,80807, 90707,90708,90808,90807
80708, 80708,80709,80809,80808, 90708,90709,90809,90808
80709, 80709,80710,80810,80809, 90709,90710,90810,90809
80710, 80710,80711,80811,80810, 90710,90711,90811,90810
80711, 80711,80712,80812,80811, 90711,90712,90812,90811
80712, 80712,80713,80813,80812, 90712,90713,90813,90812
80801, 80801,80802,80902,80901, 90801,90802,90902,90901
80802, 80802,80803,80903,80902, 90802,90803,90903,90902
80803, 80803,80804,80904,80903, 90803,90804,90904,90903
80804, 80804,80805,80905,80904, 90804,90805,90905,90904
80805, 80805,80806,80906,80905, 90805,90806,90906,90905
80806, 80806,80807,80907,80906, 90806,90807,90907,90906
80807, 80807,80808,80908,80907, 90807,90808,90908,90907
80808, 80808,80809,80909,80908, 90808,90809,90909,90908
80809, 80809,80810,80910,80909, 90809,90810,90910,90909
80810, 80810,80811,80911,80910, 90810,90811,90911,90910
80811, 80811,80812,80912,80911, 90811,90812,90912,90911
80812, 80812,80813,80913,80912, 90812,90813,90913,90912
80901, 80901,80902,81002,81001, 90901,90902,91002,91001
80902, 80902,80903,81003,81002, 90902,90903,91003,91002
80903, 80903,80904,81004,81003, 90903,90904,91004,91003
80904, 80904,80905,81005,81004, 90904,90905,91005,91004
80905, 80905,80906,81006,81005, 90905,90906,91006,91005
80906, 80906,80907,81007,81006, 90906,90907,91007,91006
80907, 80907,80908,81008,81007, 90907,90908,91008,91007
80908, 80908,80909,81009,81008, 90908,90909,91009,91008
80909, 80909,80910,81010,81009, 90909,90910,91010,91009
80910, 80910,80911,81011,81010, 90910,90911,91011,91010
80911, 80911,80912,81012,81011, 90911,90912,91012,91011
80912, 80912,80913,81013,81012, 90912,90913,91013,91012
81001, 81001,81002,81102,81101, 91001,91002,91102,91101
81002, 81002,81003,81103,81102, 91002,91003,91103,91102
81003, 81003,81004,81104,81103, 91003,91004,91104,91103
81004, 81004,81005,81105,81104, 91004,91005,91105,91104
81005, 81005,81006,81106,81105, 91005,91006,91106,91105
81006, 81006,81007,81107,81106, 91006,91007,91107,91106
81007, 81007,81008,81108,81107, 91007,91008,91108,91107
81008, 81008,81009,81109,81108, 91008,91009,91109,91108
81009, 81009,81010,81110,81109, 91009,91010,91110,91109
81010, 81010,81011,81111,81110, 91010,91011,91111,91110
81011, 81011,81012,81112,81111, 91011,91012,91112,91111
81012, 81012,81013,81113,81112, 91012,91013,91113,91112
81101, 81101,81102,81202,81201, 91101,91102,91202,91201
81102, 81102,81103,81203,81202, 91102,91103,91203,91202
81103, 81103,81104,81204,81203, 91103,91104,91204,91203
81104, 81104,81105,81205,81204, 91104,91105,91205,91204
81105, 81105,81106,81206,81205, 91105,91106,91206,91205
81106, 81106,81107,81207,81206, 91106,91107,91207,91206
81107, 81107,81108,81208,81207, 91107,91108,91208,91207
81108, 81108,81109,81209,81208, 91108,91109,91209,91208
81109, 81109,81110,81210,81209, 91109,91110,91210,91209
81110, 81110,81111,81211,81210, 91110,91111,91211,91210
81111, 81111,81112,81212,81211, 91111,91112,91212,91211
81112, 81112,81113,81213,81212, 91112,91113,91213,91212
90001, 90001,90002,90102,90101, 100001,100002,100102,100101
90002, 90002,90003,90103,90102, 100002,100003,100103,100102
90003, 90003,90004,90104,90103, 100003,100004,100104,100103
90004, 90004,90005,90105,90104, 100004,100005,100105,100104
90005, 90005,90006,90106,90105, 100005,100006,100106,100105
90006, 90006,90007,90107,90106, 100006,100007,100107,100106
90007, 90007,90008,90108,90107, 100007,100008,100108,100107
90008, 90008,90009,90109,90108, 100008,100009,100109,100108
90009, 90009,90010,90110,90109, 100009,100010,100110,100109
90010, 90010,90011,90111,90110, 100010,100011,100111,100110
90011, 90011,90012,90112,90111, 100011,100012,100112,100111
90012, 90012,90013,90113,90112, 100012,100013,100113,100112
90101, 90101,90102,90202,90201, 100101,100102,100202,100201
90102, 90102,90103,90203,90202, 100102,100103,100203,100202
90103, 90103,90104,90204,90203, 100103,100104,100204,100203
90104, 90104,90105,90205,90204, 100104,100105,100205,100204
90105, 90105,90106,90206,90205, 100105,100106,100206,100205
90106, 90106,90107,90207,90206, 100106,100107,100207,100206
90107, 90107,90108,90208,90207, 100107,100108,100208,100207
90108, 90108,90109,90209,90208, 100108,100109,100209,100208
90109, 90109,90110,90210,90209, 100109,100110,100210,100209
90110, 90110,90111,90211,90210, 100110,100111,100211,100210
90111, 90111,90112,90212,90211, 100111,100112,100212,100211
90112, 90112,90113,90213,90212, 100112,100113,100213,100212
90201, 90201,90202,90302,90301, 100201,100202,100302,100301
90202, 90202,90203,90303,90302, 100202,100203,100303,100302
90203, 90203,90204,90304,90303, 100203,100204,100304,100303
90204, 90204,90205,90305,90304, 100204,100205,100305,100304
90205, 90205,90206,90306,90305, 100205,100206,100306,100305
90206, 90206,90207,90307,90306, 100206,100207,100307,100306
90207, 90207,90208,90308,90307, 100207,100208,100308,100307
90208, 90208,90209,90309,90308, 100208,100209,100309,100308
90209, 90209,90210,90310,90309, 100209,100210,100310,100309
90210, 90210,90211,90311,90310, 100210,100211,100311,100310
90211, 90211,90212,90312,90311, 100211,100212,100312,100311
90212, 90212,90213,90313,90312, 100212,100213,100313,100312
90301, 90301,90302,90402,90401, 100301,100302,100402,100401
90302, 90302,90303,90403,90402, 100302,100303,100403,100402
90303, 90303,90304,90404,90403, 100303,100304,100404,100403
90304, 90304,90305,90405,90404, 100304,100305,100405,100404
90305, 90305,90306,90406,90405, 100305,100306,100406,100405
90306, 90306,90307,90407,90406, 100306,100307,100407,100406
90307, 90307,90308,90408,90407, 100307,100308,100408,100407
90308, 90308,90309,90409,90408, 100308,100309,100409,100408
90309, 90309,90310,90410,90409, 100309,100310,100410,100409
90310, 90310,90311,90411,90410, 100310,100311,100411,100410
90311, 90311,90312,90412,90411, 100311,100312,100412,100411
90312, 90312,90313,90413,90412, 100312,100313,100413,100412
90401, 90401,90402,90502,90501, 100401,100402,100502,100501
90402, 90402,90403,90503,90502, 100402,100403,100503,100502
90403, 90403,90404,90504,90503, 100403,100404,100504,100503
90404, 90404,90405,90505,90504, 100404,100405,100505,100504
90405, 90405,90406,90506,90505, 100405,100406,100506,100505
90406, 90406,90407,90507,90506, 100406,100407,100507,100506
90407, 90407,90408,90508,90507, 100407,100408,100508,100507
90408, 90408,90409,90509,90508, 100408,100409,100509,100508
90409, 90409,90410,90510,90509, 100409,100410,100510,100509
90410, 90410,90411,90511,90510, 100410,100411,100511,100510
90411, 90411,90412,90512,90511, 100411,100412,100512,100511
90412, 90412,90413,90513,90512, 100412,100413,100513,100512
90501, 90501,90502,90602,90601, 100501,100502,100602,100601
90502, 90502,90503,90603,90602, 100502,100503,100603,100602
90503, 90503,90504,90604,90603, 100503,100504,100604,100603
90504, 90504,90505,90605,90604, 100504,100505,100605,100604
90505, 90505,90506,90606,90605, 100505,100506,100606,100605
90506, 90506,90507,90607,90606, 100506,100507,100607,100606
90507, 90507,90508,90608,90607, 100507,100508,100608,100607
90508, 90508,90509,90609,90608, 100508,100509,100609,100608
90509, 90509,90510,90610,90609, 100509,100510,100610,100609
90510, 90510,90511,90611,90610, 100510,100511,100611,100610
90511, 90511,90512,90612,90611, 100511,100512,100612,100611
90512, 90512,90513,90613,90612, 100512,100513,100613,100612
90601, 90601,90602,90702,90701, 100601,100602,100702,100701
90602, 90602,90603,90703,90702, 100602,100603,100703,100702
90603, 90603,90604,90704,90703, 100603,100604,100704,100703
90604, 90604,90605,90705,90704, 100604,100605,100705,100704
90605, 90605,90606,90706,90705, 100605,100606,100706,100705
90606, 90606,90607,90707,90706, 100606,100607,100707,100706
90607, 90607,90608,90708,90707, 100607,100608,100708,100707
90608, 90608,90609,90709,90708, 100608,100609,100709,100708
90609, 90609,90610,90710,90709, 100609,100610,100710,100709
90610, 90610,90611,90711,90710, 100610,100611,100711,100710
90611, 90611,90612,90712,90711, 100611,100612,100712,100711
90612, 90612,90613,90713,90712, 100612,100613,100713,100712
90701, 90701,90702,90802,90801, 100701,100702,100802,100801
90702, 90702,90703,90803,90802, 100702,100703,100803,100802
90703, 90703,90704,90804,90803, 100703,100704,100804,100803
90704, 90704,90705,90805,90804, 100704,100705,100805,100804
90705, 90705,90706,90806,90805, 100705,100706,100806,100805
90706, 90706,90707,90807,90806, 100706,100707,100807,100806
90707, 90707,90708,90808,90807, 100707,100708,100808,100807
90708, 90708,90709,90809,90808, 100708,100709,100809,100808
90709, 90709,90710,90810,90809, 100709,100710,100810,100809
90710, 90710,90711,90811,90810, 100710,100711,100811,100810
90711, 90711,90712,90812,90811, 100711,100712,100812,100811
90712, 90712,90713,90813,90812, 100712,100713,100813,100812
90801, 90801,90802,90902,90901, 100801,100802,100902,100901
90802, 90802,90803,90903,90902, 100802,100803,100903,100902
90803, 90803,90804,90904,90903, 100803,100804,100904,100903
90804, 90804,90805,90905,90904, 100804,100805,100905,100904
90805, 90805,90806,90906,90905, 100805,100806,100906,100905
90806, 90806,90807,90907,90906, 100806,100807,100907,100906
90807, 90807,90808,90908,90907, 100807,100808,100908,100907
90808, 90808,90809,90909,90908, 100808,100809,100909,100908
90809, 90809,90810,90910,90909, 100809,100810,100910,100909
90810, 90810,90811,90911,90910, 100810,100811,100911,100910
90811, 90811,90812,90912,90911, 100811,100812,100912,100911
90812, 90812,90813,90913,90912, 100812,100813,100913,100912
90901, 90901,90902,91002,91001, 100901,100902,101002,101001
90902, 90902,90903,91003,91002, 100902,100903,101003,101002
90903, 90903,90904,91004,91003, 100903,100904,101004,101003
90904, 90904,90905,91005,91004, 100904,100905,101005,101004
90905, 90905,90906,91006,91005, 100905,100906,101006,101005
90906, 90906,90907,91007,91006, 100906,100907,101007,101006
90907, 90907,90908,91008,91007, 100907,100908,101008,101007
90908, 90908,90909,91009,91008, 100908,100909,101009,101008
90909, 90909,90910,91010,91009, 100909,100910,101010,101009
90910, 90910,90911,91011,91010, 100910,100911,101011,101010
90911, 90911,90912,91012,91011, 100911,100912,101012,101011
90912, 90912,90913,91013,91012, 100912,100913,101013,101012
91001, 91001,91002,91102,91101, 101001,101002,101102,101101
91002, 91002,91003,91103,91102, 101002,101003,101103,101102
91003, 91003,91004,91104,91103, 101003,101004,101104,101103
91004, 91004,91005,91105,91104, 101004,101005,101105,101104
91005, 91005,91006,91106,91105, 101005,101006,101106,101105
91006, 91006,91007,91107,91106, 101006,101007,101107,101106
91007, 91007,91008,91108,91107, 101007,101008,101108,101107
91008, 91008,91009,91109,91108, 101008,101009,101109,101108
91009, 91009,91010,91110,91109, 101009,101010,101110,101109
91010, 91010,91011,91111,91110, 101010,101011,101111,101110
91011, 91011,91012,91112,91111, 101011,101012,101112,101111
91012, 91012,91013,91113,91112, 101012,101013,101113,101112
91101, 91101,91102,91202,91201, 101101,101102,101202,101201
91102, 91102,91103,91203,91202, 101102,101103,101203,101202
91103, 91103,91104,91204,91203, 101103,101104,101204,101203
91104, 91104,91105,91205,91204, 101104,101105,101205,101204
91105, 91105,91106,91206,91205, 101105,101106,101206,101205
91106, 91106,91107,91207,91206, 101106,101107,101207,101206
91107, 91107,91108,91208,91207, 101107,101108,101208,101207
91108, 91108,91109,91209,91208, 101108,101109,101209,101208
91109, 91109,91110,91210,91209, 101109,101110,101210,101209
91110, 91110,91111,91211,91210, 101110,101111,101211,101210
91111, 91111,91112,91212,91211, 101111,101112,101212,101211
91112, 91112,91113,91213,91212, 101112,101113,101213,101212
*ELSET, ELSET=SKIN, GENERATE
1, 91112, 1
*SURFACE, TYPE=ELEMENT, NAME=SKIN_SURF
SKIN,
*NSET, NSET=PBOT
1, 2, 3, 4, 5, 6, 7, 8
9, 10, 11, 12, 13, 101, 102, 103
104, 105, 106, 107, 108, 109, 110, 111
112, 113, 201, 202, 203, 204, 205, 206
207, 208, 209, 210, 211, 212, 213, 301
302, 303, 304, 305, 306, 307, 308, 309
310, 311, 312, 313, 401, 402, 403, 404
405, 406, 407, 408, 409, 410, 411, 412
413, 501, 502, 503, 504, 505, 506, 507
508, 509, 510, 511, 512, 513, 601, 602
603, 604, 605, 606, 607, 608, 609, 610
611, 612, 613, 701, 702, 703, 704, 705
706, 707, 708, 709, 710, 711, 712, 713
801, 802, 803, 804, 805, 806, 807, 808
809, 810, 811, 812, 813, 901, 902, 903
904, 905, 906, 907, 908, 909, 910, 911
912, 913, 1001, 1002, 1003, 1004, 1005, 1006
1007, 1008, 1009, 1010, 1011, 1012, 1013, 1101
1102, 1103, 1104, 1105, 1106, 1107, 1108, 1109
1110, 1111, 1112, 1113, 1201, 1202, 1203, 1204
1205, 1206, 1207, 1208, 1209, 1210, 1211, 1212
1213
*NSET, NSET=XSYM
1, 101, 201, 301, 401, 501, 601, 701
801, 901, 1001, 1101, 1201, 10001, 10101, 10201
10301, 10401, 10501, 10601, 10701, 10801, 10901, 11001
11101, 11201, 20001, 20101, 20201, 20301, 20401, 20501
20601, 20701, 20801, 20901, 21001, 21101, 21201, 30001
30101, 30201, 30301, 30401, 30501, 30601, 30701, 30801
30901, 31001, 31101, 31201, 40001, 40101, 40201, 40301
40401, 40501, 40601, 40701, 40801, 40901, 41001, 41101
41201, 50001, 50101, 50201, 50301, 50401, 50501, 50601
50701, 50801, 50901, 51001, 51101, 51201, 60001, 60101
60201, 60301, 60401, 60501, 60601, 60701, 60801, 60901
61001, 61101, 61201, 70001, 70101, 70201, 70301, 70401
70501, 70601, 70701, 70801, 70901, 71001, 71101, 71201
80001, 80101, 80201, 80301, 80401, 80501, 80601, 80701
80801, 80901, 81001, 81101, 81201, 90001, 90101, 90201
90301, 90401, 90501, 90601, 90701, 90801, 90901, 91001
91101, 91201, 100001, 100101, 100201, 100301, 100401, 100501
100601, 100701, 100801, 100901, 101001, 101101, 101201
*NSET, NSET=YSYM
1, 2, 3, 4, 5, 6, 7, 8
9, 10, 11, 12, 13, 10001, 10002, 10003
10004, 10005, 10006, 10007, 10008, 10009, 10010, 10011
10012, 10013, 20001, 20002, 20003, 20004, 20005, 20006
20007, 20008, 20009, 20010, 20011, 20012, 20013, 30001
30002, 30003, 30004, 30005, 30006, 30007, 30008, 30009
30010, 30011, 30012, 30013, 40001, 40002, 40003, 40004
40005, 40006, 40007, 40008, 40009, 40010, 40011, 40012
40013, 50001, 50002, 50003, 50004, 50005, 50006, 50007
50008, 50009, 50010, 50011, 50012, 50013, 60001, 60002
60003, 60004, 60005, 60006, 60007, 60008, 60009, 60010
60011, 60012, 60013, 70001, 70002, 70003, 70004, 70005
70006, 70007, 70008, 70009, 70010, 70011, 70012, 70013
80001, 80002, 80003, 80004, 80005, 80006, 80007, 80008
80009, 80010, 80011, 80012, 80013, 90001, 90002, 90003
90004, 90005, 90006, 90007, 90008, 90009, 90010, 90011
90012, 90013, 100001, 100002, 100003, 100004, 100005, 100006
100007, 100008, 100009, 100010, 100011, 100012, 100013
*NSET, NSET=XOUT
13, 113, 213, 313, 413, 513, 613, 713
813, 913, 1013, 1113, 1213, 10013, 10113, 10213
10313, 10413, 10513, 10613, 10713, 10813, 10913, 11013
11113, 11213, 20013, 20113, 20213, 20313, 20413, 20513
20613, 20713, 20813, 20913, 21013, 21113, 21213, 30013
30113, 30213, 30313, 30413, 30513, 30613, 30713, 30813
30913, 31013, 31113, 31213, 40013, 40113, 40213, 40313
40413, 40513, 40613, 40713, 40813, 40913, 41013, 41113
41213, 50013, 50113, 50213, 50313, 50413, 50513, 50613
50713, 50813, 50913, 51013, 51113, 51213, 60013, 60113
60213, 60313, 60413, 60513, 60613, 60713, 60813, 60913
61013, 61113, 61213, 70013, 70113, 70213, 70313, 70413
70513, 70613, 70713, 70813, 70913, 71013, 71113, 71213
80013, 80113, 80213, 80313, 80413, 80513, 80613, 80713
80813, 80913, 81013, 81113, 81213, 90013, 90113, 90213
90313, 90413, 90513, 90613, 90713, 90813, 90913, 91013
91113, 91213, 100013, 100113, 100213, 100313, 100413, 100513
100613, 100713, 100813, 100913, 101013, 101113, 101213
*NSET, NSET=YOUT
1201, 1202, 1203, 1204, 1205, 1206, 1207, 1208
1209, 1210, 1211, 1212, 1213, 11201, 11202, 11203
11204, 11205, 11206, 11207, 11208, 11209, 11210, 11211
11212, 11213, 21201, 21202, 21203, 21204, 21205, 21206
21207, 21208, 21209, 21210, 21211, 21212, 21213, 31201
31202, 31203, 31204, 31205, 31206, 31207, 31208, 31209
31210, 31211, 31212, 31213, 41201, 41202, 41203, 41204
41205, 41206, 41207, 41208, 41209, 41210, 41211, 41212
41213, 51201, 51202, 51203, 51204, 51205, 51206, 51207
51208, 51209, 51210, 51211, 51212, 51213, 61201, 61202
61203, 61204, 61205, 61206, 61207, 61208, 61209, 61210
61211, 61212, 61213, 71201, 71202, 71203, 71204, 71205
71206, 71207, 71208, 71209, 71210, 71211, 71212, 71213
81201, 81202, 81203, 81204, 81205, 81206, 81207, 81208
81209, 81210, 81211, 81212, 81213, 91201, 91202, 91203
91204, 91205, 91206, 91207, 91208, 91209, 91210, 91211
91212, 91213, 101201, 101202, 101203, 101204, 101205, 101206
101207, 101208, 101209, 101210, 101211, 101212, 101213
*NODE
9999, 0.0, 0.0, 1.22000
*NSET, NSET=NREF
9999,
*SURFACE, TYPE=REVOLUTION, NAME=NEEDLE, FILLET RADIUS=0.01
0.,0.,0., 0.,0.,1.
START, 0.02, 1.22000
LINE,  0.15, 1.60000
LINE,  0.15, 3.00000
*RIGID BODY, ANALYTICAL SURFACE=NEEDLE, REF NODE=NREF
*MATERIAL, NAME=DERMIS_HGO
*DENSITY
1.1e-9,
*USER MATERIAL, CONSTANTS=8
0.02, 1.0, 0.5, 8.0, 0.2, 30.0, 1.6, 2.3
*DEPVAR, DELETE=1
4
1, DELFLAG, deletion flag
2, LAMMAX, max principal stretch
3, DAMAGE, damage variable
4, JVOL, relative volume
*SOLID SECTION, ELSET=SKIN, MATERIAL=DERMIS_HGO
*AMPLITUDE, NAME=PRE, DEFINITION=SMOOTH STEP, TIME=STEP TIME
0.0, 0.0, 0.005, 1.0
*AMPLITUDE, NAME=PUSH, DEFINITION=SMOOTH STEP, TIME=STEP TIME
0.0, 0.0, 0.010, 1.0
*SURFACE INTERACTION, NAME=IPROP
*FRICTION
0.1,
*STEP, NAME=PRETENSION
*DYNAMIC, EXPLICIT
, 0.005
*FIXED MASS SCALING, DT=5.0e-7, TYPE=BELOW MIN
*BOUNDARY
XSYM, 1, 1
YSYM, 2, 2
PBOT, 3, 3
NREF, 1, 6
*BOUNDARY, AMPLITUDE=PRE
XOUT, 1, 1, 0.15000
YOUT, 2, 2, 0.15000
*CONTACT
*CONTACT INCLUSIONS, ALL EXTERIOR
*CONTACT INCLUSIONS
NEEDLE, SKIN_SURF
*CONTACT PROPERTY ASSIGNMENT
 ,  , IPROP
*OUTPUT, FIELD, NUMBER INTERVAL=5
*ELEMENT OUTPUT, ELSET=SKIN
S, LE, SDV, STATUS
*NODE OUTPUT
U
*END STEP
*STEP, NAME=INSERTION
*DYNAMIC, EXPLICIT
, 0.010
*FIXED MASS SCALING, DT=5.0e-7, TYPE=BELOW MIN
*BOUNDARY, OP=NEW
XSYM, 1, 1
YSYM, 2, 2
PBOT, 3, 3
XOUT, 1, 1, 0.15000
YOUT, 2, 2, 0.15000
NREF, 1, 1
NREF, 2, 2
NREF, 4, 6
*BOUNDARY, AMPLITUDE=PUSH
NREF, 3, 3, -1.00000
*OUTPUT, FIELD, NUMBER INTERVAL=25
*ELEMENT OUTPUT, ELSET=SKIN
S, LE, SDV, STATUS
*NODE OUTPUT
U, V
*OUTPUT, HISTORY, TIME INTERVAL=1.0e-4
*NODE OUTPUT, NSET=NREF
U3, V3, RF3
*ENERGY OUTPUT
ALLIE, ALLKE, ALLSE, ALLWK
*END STEP
