*HEADING
(c) Microneedle buckling verification (Abaqus/Standard *BUCKLE)
Tapered dissolvable-polymer needle column, clamped base, axial tip load
Units: mm, N, MPa, tonne, s
**
** ============================================================
**  문헌 [5] (Int. J. Pharm. 2025) 아이디어:
**  삽입 성공 = 삽입력 F_ins < 니들 좌굴 파괴력 F_buckling
**  본 해석은 니들의 임계 좌굴하중 F_buckling 을 고유값으로 산출한다.
**
**  니들 : 길이 L=0.8 mm, 첨두 r=0.02 -> 기저 r=0.15 (원형 테이퍼)
**  경계 : 기저(node 1) 완전고정, 첨두(node 9) 축방향 단위압축하중
**         고유값 lambda -> 임계 좌굴하중 P_cr = lambda * 1 N
** ============================================================
*NODE
  1, 0.0, 0.0, 0.0
  2, 0.0, 0.0, 0.1
  3, 0.0, 0.0, 0.2
  4, 0.0, 0.0, 0.3
  5, 0.0, 0.0, 0.4
  6, 0.0, 0.0, 0.5
  7, 0.0, 0.0, 0.6
  8, 0.0, 0.0, 0.7
  9, 0.0, 0.0, 0.8
*NSET, NSET=BASE
1,
*NSET, NSET=TIP
9,
**
*ELEMENT, TYPE=B31
1, 1, 2
2, 2, 3
3, 3, 4
4, 4, 5
5, 5, 6
6, 6, 7
7, 7, 8
8, 8, 9
*ELSET, ELSET=E1
1,
*ELSET, ELSET=E2
2,
*ELSET, ELSET=E3
3,
*ELSET, ELSET=E4
4,
*ELSET, ELSET=E5
5,
*ELSET, ELSET=E6
6,
*ELSET, ELSET=E7
7,
*ELSET, ELSET=E8
8,
**
** ============================================================
**  재료 : 용해성 폴리머 (예: PVP/PLA), E=3000 MPa, nu=0.3
** ============================================================
*MATERIAL, NAME=NEEDLE
*ELASTIC
3000.0, 0.3
*DENSITY
1.3e-9,
**
** 요소별 원형 단면(테이퍼 근사: 각 요소 중점 반경)
*BEAM SECTION, SECTION=CIRC, ELSET=E1, MATERIAL=NEEDLE
0.1418750,
1.0, 0.0, 0.0
*BEAM SECTION, SECTION=CIRC, ELSET=E2, MATERIAL=NEEDLE
0.1256250,
1.0, 0.0, 0.0
*BEAM SECTION, SECTION=CIRC, ELSET=E3, MATERIAL=NEEDLE
0.1093750,
1.0, 0.0, 0.0
*BEAM SECTION, SECTION=CIRC, ELSET=E4, MATERIAL=NEEDLE
0.0931250,
1.0, 0.0, 0.0
*BEAM SECTION, SECTION=CIRC, ELSET=E5, MATERIAL=NEEDLE
0.0768750,
1.0, 0.0, 0.0
*BEAM SECTION, SECTION=CIRC, ELSET=E6, MATERIAL=NEEDLE
0.0606250,
1.0, 0.0, 0.0
*BEAM SECTION, SECTION=CIRC, ELSET=E7, MATERIAL=NEEDLE
0.0443750,
1.0, 0.0, 0.0
*BEAM SECTION, SECTION=CIRC, ELSET=E8, MATERIAL=NEEDLE
0.0281250,
1.0, 0.0, 0.0
**
** ============================================================
**  선형 좌굴 고유값 해석
** ============================================================
*STEP, NAME=BUCKLE
*BUCKLE
5, , , 30
*BOUNDARY
BASE, ENCASTRE
*CLOAD
TIP, 3, -1.0
*OUTPUT, FIELD
*NODE OUTPUT
U
*END STEP
