*HEADING
(1) Path-refined axisymmetric 3-layer skin penetration (CAX4R + VUMAT)
Biased mesh: fine near axis r=0 and near top surface (stratum corneum)
Units: mm, N, MPa, tonne, s
*NODE
1, 0.000000, 0.000000
2, 0.030000, 0.000000
3, 0.060000, 0.000000
4, 0.090000, 0.000000
5, 0.120000, 0.000000
6, 0.150000, 0.000000
7, 0.180000, 0.000000
8, 0.210000, 0.000000
9, 0.240000, 0.000000
10, 0.270000, 0.000000
11, 0.300000, 0.000000
12, 0.337500, 0.000000
13, 0.384375, 0.000000
14, 0.442969, 0.000000
15, 0.516211, 0.000000
16, 0.607764, 0.000000
17, 0.722205, 0.000000
18, 0.865256, 0.000000
19, 1.044070, 0.000000
20, 1.267587, 0.000000
21, 1.546984, 0.000000
22, 1.896230, 0.000000
23, 2.000000, 0.000000
1001, 0.000000, 0.291893
1002, 0.030000, 0.291893
1003, 0.060000, 0.291893
1004, 0.090000, 0.291893
1005, 0.120000, 0.291893
1006, 0.150000, 0.291893
1007, 0.180000, 0.291893
1008, 0.210000, 0.291893
1009, 0.240000, 0.291893
1010, 0.270000, 0.291893
1011, 0.300000, 0.291893
1012, 0.337500, 0.291893
1013, 0.384375, 0.291893
1014, 0.442969, 0.291893
1015, 0.516211, 0.291893
1016, 0.607764, 0.291893
1017, 0.722205, 0.291893
1018, 0.865256, 0.291893
1019, 1.044070, 0.291893
1020, 1.267587, 0.291893
1021, 1.546984, 0.291893
1022, 1.896230, 0.291893
1023, 2.000000, 0.291893
2001, 0.000000, 0.567610
2002, 0.030000, 0.567610
2003, 0.060000, 0.567610
2004, 0.090000, 0.567610
2005, 0.120000, 0.567610
2006, 0.150000, 0.567610
2007, 0.180000, 0.567610
2008, 0.210000, 0.567610
2009, 0.240000, 0.567610
2010, 0.270000, 0.567610
2011, 0.300000, 0.567610
2012, 0.337500, 0.567610
2013, 0.384375, 0.567610
2014, 0.442969, 0.567610
2015, 0.516211, 0.567610
2016, 0.607764, 0.567610
2017, 0.722205, 0.567610
2018, 0.865256, 0.567610
2019, 1.044070, 0.567610
2020, 1.267587, 0.567610
2021, 1.546984, 0.567610
2022, 1.896230, 0.567610
2023, 2.000000, 0.567610
3001, 0.000000, 0.779700
3002, 0.030000, 0.779700
3003, 0.060000, 0.779700
3004, 0.090000, 0.779700
3005, 0.120000, 0.779700
3006, 0.150000, 0.779700
3007, 0.180000, 0.779700
3008, 0.210000, 0.779700
3009, 0.240000, 0.779700
3010, 0.270000, 0.779700
3011, 0.300000, 0.779700
3012, 0.337500, 0.779700
3013, 0.384375, 0.779700
3014, 0.442969, 0.779700
3015, 0.516211, 0.779700
3016, 0.607764, 0.779700
3017, 0.722205, 0.779700
3018, 0.865256, 0.779700
3019, 1.044070, 0.779700
3020, 1.267587, 0.779700
3021, 1.546984, 0.779700
3022, 1.896230, 0.779700
3023, 2.000000, 0.779700
4001, 0.000000, 0.942846
4002, 0.030000, 0.942846
4003, 0.060000, 0.942846
4004, 0.090000, 0.942846
4005, 0.120000, 0.942846
4006, 0.150000, 0.942846
4007, 0.180000, 0.942846
4008, 0.210000, 0.942846
4009, 0.240000, 0.942846
4010, 0.270000, 0.942846
4011, 0.300000, 0.942846
4012, 0.337500, 0.942846
4013, 0.384375, 0.942846
4014, 0.442969, 0.942846
4015, 0.516211, 0.942846
4016, 0.607764, 0.942846
4017, 0.722205, 0.942846
4018, 0.865256, 0.942846
4019, 1.044070, 0.942846
4020, 1.267587, 0.942846
4021, 1.546984, 0.942846
4022, 1.896230, 0.942846
4023, 2.000000, 0.942846
5001, 0.000000, 1.068343
5002, 0.030000, 1.068343
5003, 0.060000, 1.068343
5004, 0.090000, 1.068343
5005, 0.120000, 1.068343
5006, 0.150000, 1.068343
5007, 0.180000, 1.068343
5008, 0.210000, 1.068343
5009, 0.240000, 1.068343
5010, 0.270000, 1.068343
5011, 0.300000, 1.068343
5012, 0.337500, 1.068343
5013, 0.384375, 1.068343
5014, 0.442969, 1.068343
5015, 0.516211, 1.068343
5016, 0.607764, 1.068343
5017, 0.722205, 1.068343
5018, 0.865256, 1.068343
5019, 1.044070, 1.068343
5020, 1.267587, 1.068343
5021, 1.546984, 1.068343
5022, 1.896230, 1.068343
5023, 2.000000, 1.068343
6001, 0.000000, 1.164879
6002, 0.030000, 1.164879
6003, 0.060000, 1.164879
6004, 0.090000, 1.164879
6005, 0.120000, 1.164879
6006, 0.150000, 1.164879
6007, 0.180000, 1.164879
6008, 0.210000, 1.164879
6009, 0.240000, 1.164879
6010, 0.270000, 1.164879
6011, 0.300000, 1.164879
6012, 0.337500, 1.164879
6013, 0.384375, 1.164879
6014, 0.442969, 1.164879
6015, 0.516211, 1.164879
6016, 0.607764, 1.164879
6017, 0.722205, 1.164879
6018, 0.865256, 1.164879
6019, 1.044070, 1.164879
6020, 1.267587, 1.164879
6021, 1.546984, 1.164879
6022, 1.896230, 1.164879
6023, 2.000000, 1.164879
7001, 0.000000, 1.239138
7002, 0.030000, 1.239138
7003, 0.060000, 1.239138
7004, 0.090000, 1.239138
7005, 0.120000, 1.239138
7006, 0.150000, 1.239138
7007, 0.180000, 1.239138
7008, 0.210000, 1.239138
7009, 0.240000, 1.239138
7010, 0.270000, 1.239138
7011, 0.300000, 1.239138
7012, 0.337500, 1.239138
7013, 0.384375, 1.239138
7014, 0.442969, 1.239138
7015, 0.516211, 1.239138
7016, 0.607764, 1.239138
7017, 0.722205, 1.239138
7018, 0.865256, 1.239138
7019, 1.044070, 1.239138
7020, 1.267587, 1.239138
7021, 1.546984, 1.239138
7022, 1.896230, 1.239138
7023, 2.000000, 1.239138
8001, 0.000000, 1.296260
8002, 0.030000, 1.296260
8003, 0.060000, 1.296260
8004, 0.090000, 1.296260
8005, 0.120000, 1.296260
8006, 0.150000, 1.296260
8007, 0.180000, 1.296260
8008, 0.210000, 1.296260
8009, 0.240000, 1.296260
8010, 0.270000, 1.296260
8011, 0.300000, 1.296260
8012, 0.337500, 1.296260
8013, 0.384375, 1.296260
8014, 0.442969, 1.296260
8015, 0.516211, 1.296260
8016, 0.607764, 1.296260
8017, 0.722205, 1.296260
8018, 0.865256, 1.296260
8019, 1.044070, 1.296260
8020, 1.267587, 1.296260
8021, 1.546984, 1.296260
8022, 1.896230, 1.296260
8023, 2.000000, 1.296260
9001, 0.000000, 1.340200
9002, 0.030000, 1.340200
9003, 0.060000, 1.340200
9004, 0.090000, 1.340200
9005, 0.120000, 1.340200
9006, 0.150000, 1.340200
9007, 0.180000, 1.340200
9008, 0.210000, 1.340200
9009, 0.240000, 1.340200
9010, 0.270000, 1.340200
9011, 0.300000, 1.340200
9012, 0.337500, 1.340200
9013, 0.384375, 1.340200
9014, 0.442969, 1.340200
9015, 0.516211, 1.340200
9016, 0.607764, 1.340200
9017, 0.722205, 1.340200
9018, 0.865256, 1.340200
9019, 1.044070, 1.340200
9020, 1.267587, 1.340200
9021, 1.546984, 1.340200
9022, 1.896230, 1.340200
9023, 2.000000, 1.340200
10001, 0.000000, 1.374000
10002, 0.030000, 1.374000
10003, 0.060000, 1.374000
10004, 0.090000, 1.374000
10005, 0.120000, 1.374000
10006, 0.150000, 1.374000
10007, 0.180000, 1.374000
10008, 0.210000, 1.374000
10009, 0.240000, 1.374000
10010, 0.270000, 1.374000
10011, 0.300000, 1.374000
10012, 0.337500, 1.374000
10013, 0.384375, 1.374000
10014, 0.442969, 1.374000
10015, 0.516211, 1.374000
10016, 0.607764, 1.374000
10017, 0.722205, 1.374000
10018, 0.865256, 1.374000
10019, 1.044070, 1.374000
10020, 1.267587, 1.374000
10021, 1.546984, 1.374000
10022, 1.896230, 1.374000
10023, 2.000000, 1.374000
11001, 0.000000, 1.400000
11002, 0.030000, 1.400000
11003, 0.060000, 1.400000
11004, 0.090000, 1.400000
11005, 0.120000, 1.400000
11006, 0.150000, 1.400000
11007, 0.180000, 1.400000
11008, 0.210000, 1.400000
11009, 0.240000, 1.400000
11010, 0.270000, 1.400000
11011, 0.300000, 1.400000
11012, 0.337500, 1.400000
11013, 0.384375, 1.400000
11014, 0.442969, 1.400000
11015, 0.516211, 1.400000
11016, 0.607764, 1.400000
11017, 0.722205, 1.400000
11018, 0.865256, 1.400000
11019, 1.044070, 1.400000
11020, 1.267587, 1.400000
11021, 1.546984, 1.400000
11022, 1.896230, 1.400000
11023, 2.000000, 1.400000
12001, 0.000000, 1.420000
12002, 0.030000, 1.420000
12003, 0.060000, 1.420000
12004, 0.090000, 1.420000
12005, 0.120000, 1.420000
12006, 0.150000, 1.420000
12007, 0.180000, 1.420000
12008, 0.210000, 1.420000
12009, 0.240000, 1.420000
12010, 0.270000, 1.420000
12011, 0.300000, 1.420000
12012, 0.337500, 1.420000
12013, 0.384375, 1.420000
12014, 0.442969, 1.420000
12015, 0.516211, 1.420000
12016, 0.607764, 1.420000
12017, 0.722205, 1.420000
12018, 0.865256, 1.420000
12019, 1.044070, 1.420000
12020, 1.267587, 1.420000
12021, 1.546984, 1.420000
12022, 1.896230, 1.420000
12023, 2.000000, 1.420000
13001, 0.000000, 1.440000
13002, 0.030000, 1.440000
13003, 0.060000, 1.440000
13004, 0.090000, 1.440000
13005, 0.120000, 1.440000
13006, 0.150000, 1.440000
13007, 0.180000, 1.440000
13008, 0.210000, 1.440000
13009, 0.240000, 1.440000
13010, 0.270000, 1.440000
13011, 0.300000, 1.440000
13012, 0.337500, 1.440000
13013, 0.384375, 1.440000
13014, 0.442969, 1.440000
13015, 0.516211, 1.440000
13016, 0.607764, 1.440000
13017, 0.722205, 1.440000
13018, 0.865256, 1.440000
13019, 1.044070, 1.440000
13020, 1.267587, 1.440000
13021, 1.546984, 1.440000
13022, 1.896230, 1.440000
13023, 2.000000, 1.440000
14001, 0.000000, 1.460000
14002, 0.030000, 1.460000
14003, 0.060000, 1.460000
14004, 0.090000, 1.460000
14005, 0.120000, 1.460000
14006, 0.150000, 1.460000
14007, 0.180000, 1.460000
14008, 0.210000, 1.460000
14009, 0.240000, 1.460000
14010, 0.270000, 1.460000
14011, 0.300000, 1.460000
14012, 0.337500, 1.460000
14013, 0.384375, 1.460000
14014, 0.442969, 1.460000
14015, 0.516211, 1.460000
14016, 0.607764, 1.460000
14017, 0.722205, 1.460000
14018, 0.865256, 1.460000
14019, 1.044070, 1.460000
14020, 1.267587, 1.460000
14021, 1.546984, 1.460000
14022, 1.896230, 1.460000
14023, 2.000000, 1.460000
15001, 0.000000, 1.480000
15002, 0.030000, 1.480000
15003, 0.060000, 1.480000
15004, 0.090000, 1.480000
15005, 0.120000, 1.480000
15006, 0.150000, 1.480000
15007, 0.180000, 1.480000
15008, 0.210000, 1.480000
15009, 0.240000, 1.480000
15010, 0.270000, 1.480000
15011, 0.300000, 1.480000
15012, 0.337500, 1.480000
15013, 0.384375, 1.480000
15014, 0.442969, 1.480000
15015, 0.516211, 1.480000
15016, 0.607764, 1.480000
15017, 0.722205, 1.480000
15018, 0.865256, 1.480000
15019, 1.044070, 1.480000
15020, 1.267587, 1.480000
15021, 1.546984, 1.480000
15022, 1.896230, 1.480000
15023, 2.000000, 1.480000
16001, 0.000000, 1.485000
16002, 0.030000, 1.485000
16003, 0.060000, 1.485000
16004, 0.090000, 1.485000
16005, 0.120000, 1.485000
16006, 0.150000, 1.485000
16007, 0.180000, 1.485000
16008, 0.210000, 1.485000
16009, 0.240000, 1.485000
16010, 0.270000, 1.485000
16011, 0.300000, 1.485000
16012, 0.337500, 1.485000
16013, 0.384375, 1.485000
16014, 0.442969, 1.485000
16015, 0.516211, 1.485000
16016, 0.607764, 1.485000
16017, 0.722205, 1.485000
16018, 0.865256, 1.485000
16019, 1.044070, 1.485000
16020, 1.267587, 1.485000
16021, 1.546984, 1.485000
16022, 1.896230, 1.485000
16023, 2.000000, 1.485000
17001, 0.000000, 1.490000
17002, 0.030000, 1.490000
17003, 0.060000, 1.490000
17004, 0.090000, 1.490000
17005, 0.120000, 1.490000
17006, 0.150000, 1.490000
17007, 0.180000, 1.490000
17008, 0.210000, 1.490000
17009, 0.240000, 1.490000
17010, 0.270000, 1.490000
17011, 0.300000, 1.490000
17012, 0.337500, 1.490000
17013, 0.384375, 1.490000
17014, 0.442969, 1.490000
17015, 0.516211, 1.490000
17016, 0.607764, 1.490000
17017, 0.722205, 1.490000
17018, 0.865256, 1.490000
17019, 1.044070, 1.490000
17020, 1.267587, 1.490000
17021, 1.546984, 1.490000
17022, 1.896230, 1.490000
17023, 2.000000, 1.490000
18001, 0.000000, 1.495000
18002, 0.030000, 1.495000
18003, 0.060000, 1.495000
18004, 0.090000, 1.495000
18005, 0.120000, 1.495000
18006, 0.150000, 1.495000
18007, 0.180000, 1.495000
18008, 0.210000, 1.495000
18009, 0.240000, 1.495000
18010, 0.270000, 1.495000
18011, 0.300000, 1.495000
18012, 0.337500, 1.495000
18013, 0.384375, 1.495000
18014, 0.442969, 1.495000
18015, 0.516211, 1.495000
18016, 0.607764, 1.495000
18017, 0.722205, 1.495000
18018, 0.865256, 1.495000
18019, 1.044070, 1.495000
18020, 1.267587, 1.495000
18021, 1.546984, 1.495000
18022, 1.896230, 1.495000
18023, 2.000000, 1.495000
19001, 0.000000, 1.500000
19002, 0.030000, 1.500000
19003, 0.060000, 1.500000
19004, 0.090000, 1.500000
19005, 0.120000, 1.500000
19006, 0.150000, 1.500000
19007, 0.180000, 1.500000
19008, 0.210000, 1.500000
19009, 0.240000, 1.500000
19010, 0.270000, 1.500000
19011, 0.300000, 1.500000
19012, 0.337500, 1.500000
19013, 0.384375, 1.500000
19014, 0.442969, 1.500000
19015, 0.516211, 1.500000
19016, 0.607764, 1.500000
19017, 0.722205, 1.500000
19018, 0.865256, 1.500000
19019, 1.044070, 1.500000
19020, 1.267587, 1.500000
19021, 1.546984, 1.500000
19022, 1.896230, 1.500000
19023, 2.000000, 1.500000
*ELEMENT, TYPE=CAX4R
1, 1, 2, 1002, 1001
2, 2, 3, 1003, 1002
3, 3, 4, 1004, 1003
4, 4, 5, 1005, 1004
5, 5, 6, 1006, 1005
6, 6, 7, 1007, 1006
7, 7, 8, 1008, 1007
8, 8, 9, 1009, 1008
9, 9, 10, 1010, 1009
10, 10, 11, 1011, 1010
11, 11, 12, 1012, 1011
12, 12, 13, 1013, 1012
13, 13, 14, 1014, 1013
14, 14, 15, 1015, 1014
15, 15, 16, 1016, 1015
16, 16, 17, 1017, 1016
17, 17, 18, 1018, 1017
18, 18, 19, 1019, 1018
19, 19, 20, 1020, 1019
20, 20, 21, 1021, 1020
21, 21, 22, 1022, 1021
22, 22, 23, 1023, 1022
23, 1001, 1002, 2002, 2001
24, 1002, 1003, 2003, 2002
25, 1003, 1004, 2004, 2003
26, 1004, 1005, 2005, 2004
27, 1005, 1006, 2006, 2005
28, 1006, 1007, 2007, 2006
29, 1007, 1008, 2008, 2007
30, 1008, 1009, 2009, 2008
31, 1009, 1010, 2010, 2009
32, 1010, 1011, 2011, 2010
33, 1011, 1012, 2012, 2011
34, 1012, 1013, 2013, 2012
35, 1013, 1014, 2014, 2013
36, 1014, 1015, 2015, 2014
37, 1015, 1016, 2016, 2015
38, 1016, 1017, 2017, 2016
39, 1017, 1018, 2018, 2017
40, 1018, 1019, 2019, 2018
41, 1019, 1020, 2020, 2019
42, 1020, 1021, 2021, 2020
43, 1021, 1022, 2022, 2021
44, 1022, 1023, 2023, 2022
45, 2001, 2002, 3002, 3001
46, 2002, 2003, 3003, 3002
47, 2003, 2004, 3004, 3003
48, 2004, 2005, 3005, 3004
49, 2005, 2006, 3006, 3005
50, 2006, 2007, 3007, 3006
51, 2007, 2008, 3008, 3007
52, 2008, 2009, 3009, 3008
53, 2009, 2010, 3010, 3009
54, 2010, 2011, 3011, 3010
55, 2011, 2012, 3012, 3011
56, 2012, 2013, 3013, 3012
57, 2013, 2014, 3014, 3013
58, 2014, 2015, 3015, 3014
59, 2015, 2016, 3016, 3015
60, 2016, 2017, 3017, 3016
61, 2017, 2018, 3018, 3017
62, 2018, 2019, 3019, 3018
63, 2019, 2020, 3020, 3019
64, 2020, 2021, 3021, 3020
65, 2021, 2022, 3022, 3021
66, 2022, 2023, 3023, 3022
67, 3001, 3002, 4002, 4001
68, 3002, 3003, 4003, 4002
69, 3003, 3004, 4004, 4003
70, 3004, 3005, 4005, 4004
71, 3005, 3006, 4006, 4005
72, 3006, 3007, 4007, 4006
73, 3007, 3008, 4008, 4007
74, 3008, 3009, 4009, 4008
75, 3009, 3010, 4010, 4009
76, 3010, 3011, 4011, 4010
77, 3011, 3012, 4012, 4011
78, 3012, 3013, 4013, 4012
79, 3013, 3014, 4014, 4013
80, 3014, 3015, 4015, 4014
81, 3015, 3016, 4016, 4015
82, 3016, 3017, 4017, 4016
83, 3017, 3018, 4018, 4017
84, 3018, 3019, 4019, 4018
85, 3019, 3020, 4020, 4019
86, 3020, 3021, 4021, 4020
87, 3021, 3022, 4022, 4021
88, 3022, 3023, 4023, 4022
89, 4001, 4002, 5002, 5001
90, 4002, 4003, 5003, 5002
91, 4003, 4004, 5004, 5003
92, 4004, 4005, 5005, 5004
93, 4005, 4006, 5006, 5005
94, 4006, 4007, 5007, 5006
95, 4007, 4008, 5008, 5007
96, 4008, 4009, 5009, 5008
97, 4009, 4010, 5010, 5009
98, 4010, 4011, 5011, 5010
99, 4011, 4012, 5012, 5011
100, 4012, 4013, 5013, 5012
101, 4013, 4014, 5014, 5013
102, 4014, 4015, 5015, 5014
103, 4015, 4016, 5016, 5015
104, 4016, 4017, 5017, 5016
105, 4017, 4018, 5018, 5017
106, 4018, 4019, 5019, 5018
107, 4019, 4020, 5020, 5019
108, 4020, 4021, 5021, 5020
109, 4021, 4022, 5022, 5021
110, 4022, 4023, 5023, 5022
111, 5001, 5002, 6002, 6001
112, 5002, 5003, 6003, 6002
113, 5003, 5004, 6004, 6003
114, 5004, 5005, 6005, 6004
115, 5005, 5006, 6006, 6005
116, 5006, 5007, 6007, 6006
117, 5007, 5008, 6008, 6007
118, 5008, 5009, 6009, 6008
119, 5009, 5010, 6010, 6009
120, 5010, 5011, 6011, 6010
121, 5011, 5012, 6012, 6011
122, 5012, 5013, 6013, 6012
123, 5013, 5014, 6014, 6013
124, 5014, 5015, 6015, 6014
125, 5015, 5016, 6016, 6015
126, 5016, 5017, 6017, 6016
127, 5017, 5018, 6018, 6017
128, 5018, 5019, 6019, 6018
129, 5019, 5020, 6020, 6019
130, 5020, 5021, 6021, 6020
131, 5021, 5022, 6022, 6021
132, 5022, 5023, 6023, 6022
133, 6001, 6002, 7002, 7001
134, 6002, 6003, 7003, 7002
135, 6003, 6004, 7004, 7003
136, 6004, 6005, 7005, 7004
137, 6005, 6006, 7006, 7005
138, 6006, 6007, 7007, 7006
139, 6007, 6008, 7008, 7007
140, 6008, 6009, 7009, 7008
141, 6009, 6010, 7010, 7009
142, 6010, 6011, 7011, 7010
143, 6011, 6012, 7012, 7011
144, 6012, 6013, 7013, 7012
145, 6013, 6014, 7014, 7013
146, 6014, 6015, 7015, 7014
147, 6015, 6016, 7016, 7015
148, 6016, 6017, 7017, 7016
149, 6017, 6018, 7018, 7017
150, 6018, 6019, 7019, 7018
151, 6019, 6020, 7020, 7019
152, 6020, 6021, 7021, 7020
153, 6021, 6022, 7022, 7021
154, 6022, 6023, 7023, 7022
155, 7001, 7002, 8002, 8001
156, 7002, 7003, 8003, 8002
157, 7003, 7004, 8004, 8003
158, 7004, 7005, 8005, 8004
159, 7005, 7006, 8006, 8005
160, 7006, 7007, 8007, 8006
161, 7007, 7008, 8008, 8007
162, 7008, 7009, 8009, 8008
163, 7009, 7010, 8010, 8009
164, 7010, 7011, 8011, 8010
165, 7011, 7012, 8012, 8011
166, 7012, 7013, 8013, 8012
167, 7013, 7014, 8014, 8013
168, 7014, 7015, 8015, 8014
169, 7015, 7016, 8016, 8015
170, 7016, 7017, 8017, 8016
171, 7017, 7018, 8018, 8017
172, 7018, 7019, 8019, 8018
173, 7019, 7020, 8020, 8019
174, 7020, 7021, 8021, 8020
175, 7021, 7022, 8022, 8021
176, 7022, 7023, 8023, 8022
177, 8001, 8002, 9002, 9001
178, 8002, 8003, 9003, 9002
179, 8003, 8004, 9004, 9003
180, 8004, 8005, 9005, 9004
181, 8005, 8006, 9006, 9005
182, 8006, 8007, 9007, 9006
183, 8007, 8008, 9008, 9007
184, 8008, 8009, 9009, 9008
185, 8009, 8010, 9010, 9009
186, 8010, 8011, 9011, 9010
187, 8011, 8012, 9012, 9011
188, 8012, 8013, 9013, 9012
189, 8013, 8014, 9014, 9013
190, 8014, 8015, 9015, 9014
191, 8015, 8016, 9016, 9015
192, 8016, 8017, 9017, 9016
193, 8017, 8018, 9018, 9017
194, 8018, 8019, 9019, 9018
195, 8019, 8020, 9020, 9019
196, 8020, 8021, 9021, 9020
197, 8021, 8022, 9022, 9021
198, 8022, 8023, 9023, 9022
199, 9001, 9002, 10002, 10001
200, 9002, 9003, 10003, 10002
201, 9003, 9004, 10004, 10003
202, 9004, 9005, 10005, 10004
203, 9005, 9006, 10006, 10005
204, 9006, 9007, 10007, 10006
205, 9007, 9008, 10008, 10007
206, 9008, 9009, 10009, 10008
207, 9009, 9010, 10010, 10009
208, 9010, 9011, 10011, 10010
209, 9011, 9012, 10012, 10011
210, 9012, 9013, 10013, 10012
211, 9013, 9014, 10014, 10013
212, 9014, 9015, 10015, 10014
213, 9015, 9016, 10016, 10015
214, 9016, 9017, 10017, 10016
215, 9017, 9018, 10018, 10017
216, 9018, 9019, 10019, 10018
217, 9019, 9020, 10020, 10019
218, 9020, 9021, 10021, 10020
219, 9021, 9022, 10022, 10021
220, 9022, 9023, 10023, 10022
221, 10001, 10002, 11002, 11001
222, 10002, 10003, 11003, 11002
223, 10003, 10004, 11004, 11003
224, 10004, 10005, 11005, 11004
225, 10005, 10006, 11006, 11005
226, 10006, 10007, 11007, 11006
227, 10007, 10008, 11008, 11007
228, 10008, 10009, 11009, 11008
229, 10009, 10010, 11010, 11009
230, 10010, 10011, 11011, 11010
231, 10011, 10012, 11012, 11011
232, 10012, 10013, 11013, 11012
233, 10013, 10014, 11014, 11013
234, 10014, 10015, 11015, 11014
235, 10015, 10016, 11016, 11015
236, 10016, 10017, 11017, 11016
237, 10017, 10018, 11018, 11017
238, 10018, 10019, 11019, 11018
239, 10019, 10020, 11020, 11019
240, 10020, 10021, 11021, 11020
241, 10021, 10022, 11022, 11021
242, 10022, 10023, 11023, 11022
243, 11001, 11002, 12002, 12001
244, 11002, 11003, 12003, 12002
245, 11003, 11004, 12004, 12003
246, 11004, 11005, 12005, 12004
247, 11005, 11006, 12006, 12005
248, 11006, 11007, 12007, 12006
249, 11007, 11008, 12008, 12007
250, 11008, 11009, 12009, 12008
251, 11009, 11010, 12010, 12009
252, 11010, 11011, 12011, 12010
253, 11011, 11012, 12012, 12011
254, 11012, 11013, 12013, 12012
255, 11013, 11014, 12014, 12013
256, 11014, 11015, 12015, 12014
257, 11015, 11016, 12016, 12015
258, 11016, 11017, 12017, 12016
259, 11017, 11018, 12018, 12017
260, 11018, 11019, 12019, 12018
261, 11019, 11020, 12020, 12019
262, 11020, 11021, 12021, 12020
263, 11021, 11022, 12022, 12021
264, 11022, 11023, 12023, 12022
265, 12001, 12002, 13002, 13001
266, 12002, 12003, 13003, 13002
267, 12003, 12004, 13004, 13003
268, 12004, 12005, 13005, 13004
269, 12005, 12006, 13006, 13005
270, 12006, 12007, 13007, 13006
271, 12007, 12008, 13008, 13007
272, 12008, 12009, 13009, 13008
273, 12009, 12010, 13010, 13009
274, 12010, 12011, 13011, 13010
275, 12011, 12012, 13012, 13011
276, 12012, 12013, 13013, 13012
277, 12013, 12014, 13014, 13013
278, 12014, 12015, 13015, 13014
279, 12015, 12016, 13016, 13015
280, 12016, 12017, 13017, 13016
281, 12017, 12018, 13018, 13017
282, 12018, 12019, 13019, 13018
283, 12019, 12020, 13020, 13019
284, 12020, 12021, 13021, 13020
285, 12021, 12022, 13022, 13021
286, 12022, 12023, 13023, 13022
287, 13001, 13002, 14002, 14001
288, 13002, 13003, 14003, 14002
289, 13003, 13004, 14004, 14003
290, 13004, 13005, 14005, 14004
291, 13005, 13006, 14006, 14005
292, 13006, 13007, 14007, 14006
293, 13007, 13008, 14008, 14007
294, 13008, 13009, 14009, 14008
295, 13009, 13010, 14010, 14009
296, 13010, 13011, 14011, 14010
297, 13011, 13012, 14012, 14011
298, 13012, 13013, 14013, 14012
299, 13013, 13014, 14014, 14013
300, 13014, 13015, 14015, 14014
301, 13015, 13016, 14016, 14015
302, 13016, 13017, 14017, 14016
303, 13017, 13018, 14018, 14017
304, 13018, 13019, 14019, 14018
305, 13019, 13020, 14020, 14019
306, 13020, 13021, 14021, 14020
307, 13021, 13022, 14022, 14021
308, 13022, 13023, 14023, 14022
309, 14001, 14002, 15002, 15001
310, 14002, 14003, 15003, 15002
311, 14003, 14004, 15004, 15003
312, 14004, 14005, 15005, 15004
313, 14005, 14006, 15006, 15005
314, 14006, 14007, 15007, 15006
315, 14007, 14008, 15008, 15007
316, 14008, 14009, 15009, 15008
317, 14009, 14010, 15010, 15009
318, 14010, 14011, 15011, 15010
319, 14011, 14012, 15012, 15011
320, 14012, 14013, 15013, 15012
321, 14013, 14014, 15014, 15013
322, 14014, 14015, 15015, 15014
323, 14015, 14016, 15016, 15015
324, 14016, 14017, 15017, 15016
325, 14017, 14018, 15018, 15017
326, 14018, 14019, 15019, 15018
327, 14019, 14020, 15020, 15019
328, 14020, 14021, 15021, 15020
329, 14021, 14022, 15022, 15021
330, 14022, 14023, 15023, 15022
331, 15001, 15002, 16002, 16001
332, 15002, 15003, 16003, 16002
333, 15003, 15004, 16004, 16003
334, 15004, 15005, 16005, 16004
335, 15005, 15006, 16006, 16005
336, 15006, 15007, 16007, 16006
337, 15007, 15008, 16008, 16007
338, 15008, 15009, 16009, 16008
339, 15009, 15010, 16010, 16009
340, 15010, 15011, 16011, 16010
341, 15011, 15012, 16012, 16011
342, 15012, 15013, 16013, 16012
343, 15013, 15014, 16014, 16013
344, 15014, 15015, 16015, 16014
345, 15015, 15016, 16016, 16015
346, 15016, 15017, 16017, 16016
347, 15017, 15018, 16018, 16017
348, 15018, 15019, 16019, 16018
349, 15019, 15020, 16020, 16019
350, 15020, 15021, 16021, 16020
351, 15021, 15022, 16022, 16021
352, 15022, 15023, 16023, 16022
353, 16001, 16002, 17002, 17001
354, 16002, 16003, 17003, 17002
355, 16003, 16004, 17004, 17003
356, 16004, 16005, 17005, 17004
357, 16005, 16006, 17006, 17005
358, 16006, 16007, 17007, 17006
359, 16007, 16008, 17008, 17007
360, 16008, 16009, 17009, 17008
361, 16009, 16010, 17010, 17009
362, 16010, 16011, 17011, 17010
363, 16011, 16012, 17012, 17011
364, 16012, 16013, 17013, 17012
365, 16013, 16014, 17014, 17013
366, 16014, 16015, 17015, 17014
367, 16015, 16016, 17016, 17015
368, 16016, 16017, 17017, 17016
369, 16017, 16018, 17018, 17017
370, 16018, 16019, 17019, 17018
371, 16019, 16020, 17020, 17019
372, 16020, 16021, 17021, 17020
373, 16021, 16022, 17022, 17021
374, 16022, 16023, 17023, 17022
375, 17001, 17002, 18002, 18001
376, 17002, 17003, 18003, 18002
377, 17003, 17004, 18004, 18003
378, 17004, 17005, 18005, 18004
379, 17005, 17006, 18006, 18005
380, 17006, 17007, 18007, 18006
381, 17007, 17008, 18008, 18007
382, 17008, 17009, 18009, 18008
383, 17009, 17010, 18010, 18009
384, 17010, 17011, 18011, 18010
385, 17011, 17012, 18012, 18011
386, 17012, 17013, 18013, 18012
387, 17013, 17014, 18014, 18013
388, 17014, 17015, 18015, 18014
389, 17015, 17016, 18016, 18015
390, 17016, 17017, 18017, 18016
391, 17017, 17018, 18018, 18017
392, 17018, 17019, 18019, 18018
393, 17019, 17020, 18020, 18019
394, 17020, 17021, 18021, 18020
395, 17021, 17022, 18022, 18021
396, 17022, 17023, 18023, 18022
397, 18001, 18002, 19002, 19001
398, 18002, 18003, 19003, 19002
399, 18003, 18004, 19004, 19003
400, 18004, 18005, 19005, 19004
401, 18005, 18006, 19006, 19005
402, 18006, 18007, 19007, 19006
403, 18007, 18008, 19008, 19007
404, 18008, 18009, 19009, 19008
405, 18009, 18010, 19010, 19009
406, 18010, 18011, 19011, 19010
407, 18011, 18012, 19012, 19011
408, 18012, 18013, 19013, 19012
409, 18013, 18014, 19014, 19013
410, 18014, 18015, 19015, 19014
411, 18015, 18016, 19016, 19015
412, 18016, 18017, 19017, 19016
413, 18017, 18018, 19018, 19017
414, 18018, 18019, 19019, 19018
415, 18019, 18020, 19020, 19019
416, 18020, 18021, 19021, 19020
417, 18021, 18022, 19022, 19021
418, 18022, 18023, 19023, 19022
*ELSET, ELSET=STRATUM
331, 332, 333, 334, 335, 336, 337, 338, 339, 340, 341, 342
343, 344, 345, 346, 347, 348, 349, 350, 351, 352, 353, 354
355, 356, 357, 358, 359, 360, 361, 362, 363, 364, 365, 366
367, 368, 369, 370, 371, 372, 373, 374, 375, 376, 377, 378
379, 380, 381, 382, 383, 384, 385, 386, 387, 388, 389, 390
391, 392, 393, 394, 395, 396, 397, 398, 399, 400, 401, 402
403, 404, 405, 406, 407, 408, 409, 410, 411, 412, 413, 414
415, 416, 417, 418
*ELSET, ELSET=EPIDERMIS
243, 244, 245, 246, 247, 248, 249, 250, 251, 252, 253, 254
255, 256, 257, 258, 259, 260, 261, 262, 263, 264, 265, 266
267, 268, 269, 270, 271, 272, 273, 274, 275, 276, 277, 278
279, 280, 281, 282, 283, 284, 285, 286, 287, 288, 289, 290
291, 292, 293, 294, 295, 296, 297, 298, 299, 300, 301, 302
303, 304, 305, 306, 307, 308, 309, 310, 311, 312, 313, 314
315, 316, 317, 318, 319, 320, 321, 322, 323, 324, 325, 326
327, 328, 329, 330
*ELSET, ELSET=DERMIS
1, 2, 3, 4, 5, 6, 7, 8, 9, 10, 11, 12
13, 14, 15, 16, 17, 18, 19, 20, 21, 22, 23, 24
25, 26, 27, 28, 29, 30, 31, 32, 33, 34, 35, 36
37, 38, 39, 40, 41, 42, 43, 44, 45, 46, 47, 48
49, 50, 51, 52, 53, 54, 55, 56, 57, 58, 59, 60
61, 62, 63, 64, 65, 66, 67, 68, 69, 70, 71, 72
73, 74, 75, 76, 77, 78, 79, 80, 81, 82, 83, 84
85, 86, 87, 88, 89, 90, 91, 92, 93, 94, 95, 96
97, 98, 99, 100, 101, 102, 103, 104, 105, 106, 107, 108
109, 110, 111, 112, 113, 114, 115, 116, 117, 118, 119, 120
121, 122, 123, 124, 125, 126, 127, 128, 129, 130, 131, 132
133, 134, 135, 136, 137, 138, 139, 140, 141, 142, 143, 144
145, 146, 147, 148, 149, 150, 151, 152, 153, 154, 155, 156
157, 158, 159, 160, 161, 162, 163, 164, 165, 166, 167, 168
169, 170, 171, 172, 173, 174, 175, 176, 177, 178, 179, 180
181, 182, 183, 184, 185, 186, 187, 188, 189, 190, 191, 192
193, 194, 195, 196, 197, 198, 199, 200, 201, 202, 203, 204
205, 206, 207, 208, 209, 210, 211, 212, 213, 214, 215, 216
217, 218, 219, 220, 221, 222, 223, 224, 225, 226, 227, 228
229, 230, 231, 232, 233, 234, 235, 236, 237, 238, 239, 240
241, 242
*ELSET, ELSET=SKIN_ALL
STRATUM, EPIDERMIS, DERMIS
*SURFACE, TYPE=ELEMENT, NAME=SKIN_SURF
SKIN_ALL,
*NSET, NSET=NBOT
1, 2, 3, 4, 5, 6, 7, 8, 9, 10, 11, 12
13, 14, 15, 16, 17, 18, 19, 20, 21, 22, 23
*NSET, NSET=NAXIS
1, 1001, 2001, 3001, 4001, 5001, 6001, 7001, 8001, 9001, 10001, 11001
12001, 13001, 14001, 15001, 16001, 17001, 18001, 19001
*NSET, NSET=NRIGHT
23, 1023, 2023, 3023, 4023, 5023, 6023, 7023, 8023, 9023, 10023, 11023
12023, 13023, 14023, 15023, 16023, 17023, 18023, 19023
*NODE
9999, 0.0, 1.52000
*NSET, NSET=NREF
9999,
*SURFACE, TYPE=SEGMENTS, NAME=NEEDLE, FILLET RADIUS=0.01
START, 0.02, 1.52000
LINE,  0.15, 1.90000
LINE,  0.15, 3.50000
*RIGID BODY, ANALYTICAL SURFACE=NEEDLE, REF NODE=NREF
*MATERIAL, NAME=MAT_SC
*DENSITY
1.2e-9,
*USER MATERIAL, CONSTANTS=4
1.0, 0.02, 1.2, 1.5
*DEPVAR, DELETE=1
4
1, DELFLAG, deletion flag
2, LAMMAX, max principal stretch
3, DAMAGE, damage variable
4, JVOL, relative volume
*MATERIAL, NAME=MAT_EPI
*DENSITY
1.1e-9,
*USER MATERIAL, CONSTANTS=4
0.1, 0.1, 1.4, 1.9
*DEPVAR, DELETE=1
4
1, DELFLAG, deletion flag
2, LAMMAX, max principal stretch
3, DAMAGE, damage variable
4, JVOL, relative volume
*MATERIAL, NAME=MAT_DERM
*DENSITY
1.1e-9,
*USER MATERIAL, CONSTANTS=4
0.02, 1.0, 1.6, 2.5
*DEPVAR, DELETE=1
4
1, DELFLAG, deletion flag
2, LAMMAX, max principal stretch
3, DAMAGE, damage variable
4, JVOL, relative volume
*SOLID SECTION, ELSET=STRATUM, MATERIAL=MAT_SC
*SOLID SECTION, ELSET=EPIDERMIS, MATERIAL=MAT_EPI
*SOLID SECTION, ELSET=DERMIS, MATERIAL=MAT_DERM
*BOUNDARY
NBOT, 2, 2
NAXIS, 1, 1
NRIGHT, 1, 1
NREF, 1, 1
NREF, 6, 6
*AMPLITUDE, NAME=PUSH, DEFINITION=SMOOTH STEP
0.0, 0.0, 0.01, 1.0
*STEP, NAME=PENETRATION
*DYNAMIC, EXPLICIT
, 0.01
*FIXED MASS SCALING, DT=2.0e-7, TYPE=BELOW MIN
*BOUNDARY, AMPLITUDE=PUSH
NREF, 2, 2, -1.2
*CONTACT
*CONTACT INCLUSIONS, ALL EXTERIOR
*CONTACT INCLUSIONS
NEEDLE, SKIN_SURF
*CONTACT PROPERTY ASSIGNMENT
 ,  , IPROP
*SURFACE INTERACTION, NAME=IPROP
*FRICTION
0.1,
*OUTPUT, FIELD, NUMBER INTERVAL=25
*ELEMENT OUTPUT, ELSET=SKIN_ALL
S, LE, SDV, STATUS
*NODE OUTPUT
U, V
*OUTPUT, HISTORY, TIME INTERVAL=1.0e-4
*NODE OUTPUT, NSET=NREF
U2, V2, RF2
*ENERGY OUTPUT
ALLIE, ALLKE, ALLSE, ALLWK
*END STEP
