*HEADING
(4) Cohesive-layer cutting - plane strain, needle wedge splits skin
Bulk: built-in Neo-Hookean; center x=0: cohesive traction-separation
Units: mm, N, MPa, tonne, s
*NODE
1, -1.000000, 0.000000
2, -0.851290, 0.000000
3, -0.721976, 0.000000
4, -0.609530, 0.000000
5, -0.511750, 0.000000
6, -0.426724, 0.000000
7, -0.352789, 0.000000
8, -0.288497, 0.000000
9, -0.232592, 0.000000
10, -0.183978, 0.000000
11, -0.141705, 0.000000
12, -0.104946, 0.000000
13, -0.072982, 0.000000
14, -0.045187, 0.000000
15, -0.021017, 0.000000
16, -0.000000, 0.000000
1001, -1.000000, 0.196993
1002, -0.851290, 0.196993
1003, -0.721976, 0.196993
1004, -0.609530, 0.196993
1005, -0.511750, 0.196993
1006, -0.426724, 0.196993
1007, -0.352789, 0.196993
1008, -0.288497, 0.196993
1009, -0.232592, 0.196993
1010, -0.183978, 0.196993
1011, -0.141705, 0.196993
1012, -0.104946, 0.196993
1013, -0.072982, 0.196993
1014, -0.045187, 0.196993
1015, -0.021017, 0.196993
1016, -0.000000, 0.196993
2001, -1.000000, 0.363937
2002, -0.851290, 0.363937
2003, -0.721976, 0.363937
2004, -0.609530, 0.363937
2005, -0.511750, 0.363937
2006, -0.426724, 0.363937
2007, -0.352789, 0.363937
2008, -0.288497, 0.363937
2009, -0.232592, 0.363937
2010, -0.183978, 0.363937
2011, -0.141705, 0.363937
2012, -0.104946, 0.363937
2013, -0.072982, 0.363937
2014, -0.045187, 0.363937
2015, -0.021017, 0.363937
2016, -0.000000, 0.363937
3001, -1.000000, 0.505414
3002, -0.851290, 0.505414
3003, -0.721976, 0.505414
3004, -0.609530, 0.505414
3005, -0.511750, 0.505414
3006, -0.426724, 0.505414
3007, -0.352789, 0.505414
3008, -0.288497, 0.505414
3009, -0.232592, 0.505414
3010, -0.183978, 0.505414
3011, -0.141705, 0.505414
3012, -0.104946, 0.505414
3013, -0.072982, 0.505414
3014, -0.045187, 0.505414
3015, -0.021017, 0.505414
3016, -0.000000, 0.505414
4001, -1.000000, 0.625311
4002, -0.851290, 0.625311
4003, -0.721976, 0.625311
4004, -0.609530, 0.625311
4005, -0.511750, 0.625311
4006, -0.426724, 0.625311
4007, -0.352789, 0.625311
4008, -0.288497, 0.625311
4009, -0.232592, 0.625311
4010, -0.183978, 0.625311
4011, -0.141705, 0.625311
4012, -0.104946, 0.625311
4013, -0.072982, 0.625311
4014, -0.045187, 0.625311
4015, -0.021017, 0.625311
4016, -0.000000, 0.625311
5001, -1.000000, 0.726917
5002, -0.851290, 0.726917
5003, -0.721976, 0.726917
5004, -0.609530, 0.726917
5005, -0.511750, 0.726917
5006, -0.426724, 0.726917
5007, -0.352789, 0.726917
5008, -0.288497, 0.726917
5009, -0.232592, 0.726917
5010, -0.183978, 0.726917
5011, -0.141705, 0.726917
5012, -0.104946, 0.726917
5013, -0.072982, 0.726917
5014, -0.045187, 0.726917
5015, -0.021017, 0.726917
5016, -0.000000, 0.726917
6001, -1.000000, 0.813025
6002, -0.851290, 0.813025
6003, -0.721976, 0.813025
6004, -0.609530, 0.813025
6005, -0.511750, 0.813025
6006, -0.426724, 0.813025
6007, -0.352789, 0.813025
6008, -0.288497, 0.813025
6009, -0.232592, 0.813025
6010, -0.183978, 0.813025
6011, -0.141705, 0.813025
6012, -0.104946, 0.813025
6013, -0.072982, 0.813025
6014, -0.045187, 0.813025
6015, -0.021017, 0.813025
6016, -0.000000, 0.813025
7001, -1.000000, 0.885998
7002, -0.851290, 0.885998
7003, -0.721976, 0.885998
7004, -0.609530, 0.885998
7005, -0.511750, 0.885998
7006, -0.426724, 0.885998
7007, -0.352789, 0.885998
7008, -0.288497, 0.885998
7009, -0.232592, 0.885998
7010, -0.183978, 0.885998
7011, -0.141705, 0.885998
7012, -0.104946, 0.885998
7013, -0.072982, 0.885998
7014, -0.045187, 0.885998
7015, -0.021017, 0.885998
7016, -0.000000, 0.885998
8001, -1.000000, 0.947839
8002, -0.851290, 0.947839
8003, -0.721976, 0.947839
8004, -0.609530, 0.947839
8005, -0.511750, 0.947839
8006, -0.426724, 0.947839
8007, -0.352789, 0.947839
8008, -0.288497, 0.947839
8009, -0.232592, 0.947839
8010, -0.183978, 0.947839
8011, -0.141705, 0.947839
8012, -0.104946, 0.947839
8013, -0.072982, 0.947839
8014, -0.045187, 0.947839
8015, -0.021017, 0.947839
8016, -0.000000, 0.947839
9001, -1.000000, 1.000246
9002, -0.851290, 1.000246
9003, -0.721976, 1.000246
9004, -0.609530, 1.000246
9005, -0.511750, 1.000246
9006, -0.426724, 1.000246
9007, -0.352789, 1.000246
9008, -0.288497, 1.000246
9009, -0.232592, 1.000246
9010, -0.183978, 1.000246
9011, -0.141705, 1.000246
9012, -0.104946, 1.000246
9013, -0.072982, 1.000246
9014, -0.045187, 1.000246
9015, -0.021017, 1.000246
9016, -0.000000, 1.000246
10001, -1.000000, 1.044660
10002, -0.851290, 1.044660
10003, -0.721976, 1.044660
10004, -0.609530, 1.044660
10005, -0.511750, 1.044660
10006, -0.426724, 1.044660
10007, -0.352789, 1.044660
10008, -0.288497, 1.044660
10009, -0.232592, 1.044660
10010, -0.183978, 1.044660
10011, -0.141705, 1.044660
10012, -0.104946, 1.044660
10013, -0.072982, 1.044660
10014, -0.045187, 1.044660
10015, -0.021017, 1.044660
10016, -0.000000, 1.044660
11001, -1.000000, 1.082298
11002, -0.851290, 1.082298
11003, -0.721976, 1.082298
11004, -0.609530, 1.082298
11005, -0.511750, 1.082298
11006, -0.426724, 1.082298
11007, -0.352789, 1.082298
11008, -0.288497, 1.082298
11009, -0.232592, 1.082298
11010, -0.183978, 1.082298
11011, -0.141705, 1.082298
11012, -0.104946, 1.082298
11013, -0.072982, 1.082298
11014, -0.045187, 1.082298
11015, -0.021017, 1.082298
11016, -0.000000, 1.082298
12001, -1.000000, 1.114195
12002, -0.851290, 1.114195
12003, -0.721976, 1.114195
12004, -0.609530, 1.114195
12005, -0.511750, 1.114195
12006, -0.426724, 1.114195
12007, -0.352789, 1.114195
12008, -0.288497, 1.114195
12009, -0.232592, 1.114195
12010, -0.183978, 1.114195
12011, -0.141705, 1.114195
12012, -0.104946, 1.114195
12013, -0.072982, 1.114195
12014, -0.045187, 1.114195
12015, -0.021017, 1.114195
12016, -0.000000, 1.114195
13001, -1.000000, 1.141227
13002, -0.851290, 1.141227
13003, -0.721976, 1.141227
13004, -0.609530, 1.141227
13005, -0.511750, 1.141227
13006, -0.426724, 1.141227
13007, -0.352789, 1.141227
13008, -0.288497, 1.141227
13009, -0.232592, 1.141227
13010, -0.183978, 1.141227
13011, -0.141705, 1.141227
13012, -0.104946, 1.141227
13013, -0.072982, 1.141227
13014, -0.045187, 1.141227
13015, -0.021017, 1.141227
13016, -0.000000, 1.141227
14001, -1.000000, 1.164134
14002, -0.851290, 1.164134
14003, -0.721976, 1.164134
14004, -0.609530, 1.164134
14005, -0.511750, 1.164134
14006, -0.426724, 1.164134
14007, -0.352789, 1.164134
14008, -0.288497, 1.164134
14009, -0.232592, 1.164134
14010, -0.183978, 1.164134
14011, -0.141705, 1.164134
14012, -0.104946, 1.164134
14013, -0.072982, 1.164134
14014, -0.045187, 1.164134
14015, -0.021017, 1.164134
14016, -0.000000, 1.164134
15001, -1.000000, 1.183548
15002, -0.851290, 1.183548
15003, -0.721976, 1.183548
15004, -0.609530, 1.183548
15005, -0.511750, 1.183548
15006, -0.426724, 1.183548
15007, -0.352789, 1.183548
15008, -0.288497, 1.183548
15009, -0.232592, 1.183548
15010, -0.183978, 1.183548
15011, -0.141705, 1.183548
15012, -0.104946, 1.183548
15013, -0.072982, 1.183548
15014, -0.045187, 1.183548
15015, -0.021017, 1.183548
15016, -0.000000, 1.183548
16001, -1.000000, 1.200000
16002, -0.851290, 1.200000
16003, -0.721976, 1.200000
16004, -0.609530, 1.200000
16005, -0.511750, 1.200000
16006, -0.426724, 1.200000
16007, -0.352789, 1.200000
16008, -0.288497, 1.200000
16009, -0.232592, 1.200000
16010, -0.183978, 1.200000
16011, -0.141705, 1.200000
16012, -0.104946, 1.200000
16013, -0.072982, 1.200000
16014, -0.045187, 1.200000
16015, -0.021017, 1.200000
16016, -0.000000, 1.200000
1000000, 0.000000, 0.000000
1000001, 0.021017, 0.000000
1000002, 0.045187, 0.000000
1000003, 0.072982, 0.000000
1000004, 0.104946, 0.000000
1000005, 0.141705, 0.000000
1000006, 0.183978, 0.000000
1000007, 0.232592, 0.000000
1000008, 0.288497, 0.000000
1000009, 0.352789, 0.000000
1000010, 0.426724, 0.000000
1000011, 0.511750, 0.000000
1000012, 0.609530, 0.000000
1000013, 0.721976, 0.000000
1000014, 0.851290, 0.000000
1000015, 1.000000, 0.000000
1001000, 0.000000, 0.196993
1001001, 0.021017, 0.196993
1001002, 0.045187, 0.196993
1001003, 0.072982, 0.196993
1001004, 0.104946, 0.196993
1001005, 0.141705, 0.196993
1001006, 0.183978, 0.196993
1001007, 0.232592, 0.196993
1001008, 0.288497, 0.196993
1001009, 0.352789, 0.196993
1001010, 0.426724, 0.196993
1001011, 0.511750, 0.196993
1001012, 0.609530, 0.196993
1001013, 0.721976, 0.196993
1001014, 0.851290, 0.196993
1001015, 1.000000, 0.196993
1002000, 0.000000, 0.363937
1002001, 0.021017, 0.363937
1002002, 0.045187, 0.363937
1002003, 0.072982, 0.363937
1002004, 0.104946, 0.363937
1002005, 0.141705, 0.363937
1002006, 0.183978, 0.363937
1002007, 0.232592, 0.363937
1002008, 0.288497, 0.363937
1002009, 0.352789, 0.363937
1002010, 0.426724, 0.363937
1002011, 0.511750, 0.363937
1002012, 0.609530, 0.363937
1002013, 0.721976, 0.363937
1002014, 0.851290, 0.363937
1002015, 1.000000, 0.363937
1003000, 0.000000, 0.505414
1003001, 0.021017, 0.505414
1003002, 0.045187, 0.505414
1003003, 0.072982, 0.505414
1003004, 0.104946, 0.505414
1003005, 0.141705, 0.505414
1003006, 0.183978, 0.505414
1003007, 0.232592, 0.505414
1003008, 0.288497, 0.505414
1003009, 0.352789, 0.505414
1003010, 0.426724, 0.505414
1003011, 0.511750, 0.505414
1003012, 0.609530, 0.505414
1003013, 0.721976, 0.505414
1003014, 0.851290, 0.505414
1003015, 1.000000, 0.505414
1004000, 0.000000, 0.625311
1004001, 0.021017, 0.625311
1004002, 0.045187, 0.625311
1004003, 0.072982, 0.625311
1004004, 0.104946, 0.625311
1004005, 0.141705, 0.625311
1004006, 0.183978, 0.625311
1004007, 0.232592, 0.625311
1004008, 0.288497, 0.625311
1004009, 0.352789, 0.625311
1004010, 0.426724, 0.625311
1004011, 0.511750, 0.625311
1004012, 0.609530, 0.625311
1004013, 0.721976, 0.625311
1004014, 0.851290, 0.625311
1004015, 1.000000, 0.625311
1005000, 0.000000, 0.726917
1005001, 0.021017, 0.726917
1005002, 0.045187, 0.726917
1005003, 0.072982, 0.726917
1005004, 0.104946, 0.726917
1005005, 0.141705, 0.726917
1005006, 0.183978, 0.726917
1005007, 0.232592, 0.726917
1005008, 0.288497, 0.726917
1005009, 0.352789, 0.726917
1005010, 0.426724, 0.726917
1005011, 0.511750, 0.726917
1005012, 0.609530, 0.726917
1005013, 0.721976, 0.726917
1005014, 0.851290, 0.726917
1005015, 1.000000, 0.726917
1006000, 0.000000, 0.813025
1006001, 0.021017, 0.813025
1006002, 0.045187, 0.813025
1006003, 0.072982, 0.813025
1006004, 0.104946, 0.813025
1006005, 0.141705, 0.813025
1006006, 0.183978, 0.813025
1006007, 0.232592, 0.813025
1006008, 0.288497, 0.813025
1006009, 0.352789, 0.813025
1006010, 0.426724, 0.813025
1006011, 0.511750, 0.813025
1006012, 0.609530, 0.813025
1006013, 0.721976, 0.813025
1006014, 0.851290, 0.813025
1006015, 1.000000, 0.813025
1007000, 0.000000, 0.885998
1007001, 0.021017, 0.885998
1007002, 0.045187, 0.885998
1007003, 0.072982, 0.885998
1007004, 0.104946, 0.885998
1007005, 0.141705, 0.885998
1007006, 0.183978, 0.885998
1007007, 0.232592, 0.885998
1007008, 0.288497, 0.885998
1007009, 0.352789, 0.885998
1007010, 0.426724, 0.885998
1007011, 0.511750, 0.885998
1007012, 0.609530, 0.885998
1007013, 0.721976, 0.885998
1007014, 0.851290, 0.885998
1007015, 1.000000, 0.885998
1008000, 0.000000, 0.947839
1008001, 0.021017, 0.947839
1008002, 0.045187, 0.947839
1008003, 0.072982, 0.947839
1008004, 0.104946, 0.947839
1008005, 0.141705, 0.947839
1008006, 0.183978, 0.947839
1008007, 0.232592, 0.947839
1008008, 0.288497, 0.947839
1008009, 0.352789, 0.947839
1008010, 0.426724, 0.947839
1008011, 0.511750, 0.947839
1008012, 0.609530, 0.947839
1008013, 0.721976, 0.947839
1008014, 0.851290, 0.947839
1008015, 1.000000, 0.947839
1009000, 0.000000, 1.000246
1009001, 0.021017, 1.000246
1009002, 0.045187, 1.000246
1009003, 0.072982, 1.000246
1009004, 0.104946, 1.000246
1009005, 0.141705, 1.000246
1009006, 0.183978, 1.000246
1009007, 0.232592, 1.000246
1009008, 0.288497, 1.000246
1009009, 0.352789, 1.000246
1009010, 0.426724, 1.000246
1009011, 0.511750, 1.000246
1009012, 0.609530, 1.000246
1009013, 0.721976, 1.000246
1009014, 0.851290, 1.000246
1009015, 1.000000, 1.000246
1010000, 0.000000, 1.044660
1010001, 0.021017, 1.044660
1010002, 0.045187, 1.044660
1010003, 0.072982, 1.044660
1010004, 0.104946, 1.044660
1010005, 0.141705, 1.044660
1010006, 0.183978, 1.044660
1010007, 0.232592, 1.044660
1010008, 0.288497, 1.044660
1010009, 0.352789, 1.044660
1010010, 0.426724, 1.044660
1010011, 0.511750, 1.044660
1010012, 0.609530, 1.044660
1010013, 0.721976, 1.044660
1010014, 0.851290, 1.044660
1010015, 1.000000, 1.044660
1011000, 0.000000, 1.082298
1011001, 0.021017, 1.082298
1011002, 0.045187, 1.082298
1011003, 0.072982, 1.082298
1011004, 0.104946, 1.082298
1011005, 0.141705, 1.082298
1011006, 0.183978, 1.082298
1011007, 0.232592, 1.082298
1011008, 0.288497, 1.082298
1011009, 0.352789, 1.082298
1011010, 0.426724, 1.082298
1011011, 0.511750, 1.082298
1011012, 0.609530, 1.082298
1011013, 0.721976, 1.082298
1011014, 0.851290, 1.082298
1011015, 1.000000, 1.082298
1012000, 0.000000, 1.114195
1012001, 0.021017, 1.114195
1012002, 0.045187, 1.114195
1012003, 0.072982, 1.114195
1012004, 0.104946, 1.114195
1012005, 0.141705, 1.114195
1012006, 0.183978, 1.114195
1012007, 0.232592, 1.114195
1012008, 0.288497, 1.114195
1012009, 0.352789, 1.114195
1012010, 0.426724, 1.114195
1012011, 0.511750, 1.114195
1012012, 0.609530, 1.114195
1012013, 0.721976, 1.114195
1012014, 0.851290, 1.114195
1012015, 1.000000, 1.114195
1013000, 0.000000, 1.141227
1013001, 0.021017, 1.141227
1013002, 0.045187, 1.141227
1013003, 0.072982, 1.141227
1013004, 0.104946, 1.141227
1013005, 0.141705, 1.141227
1013006, 0.183978, 1.141227
1013007, 0.232592, 1.141227
1013008, 0.288497, 1.141227
1013009, 0.352789, 1.141227
1013010, 0.426724, 1.141227
1013011, 0.511750, 1.141227
1013012, 0.609530, 1.141227
1013013, 0.721976, 1.141227
1013014, 0.851290, 1.141227
1013015, 1.000000, 1.141227
1014000, 0.000000, 1.164134
1014001, 0.021017, 1.164134
1014002, 0.045187, 1.164134
1014003, 0.072982, 1.164134
1014004, 0.104946, 1.164134
1014005, 0.141705, 1.164134
1014006, 0.183978, 1.164134
1014007, 0.232592, 1.164134
1014008, 0.288497, 1.164134
1014009, 0.352789, 1.164134
1014010, 0.426724, 1.164134
1014011, 0.511750, 1.164134
1014012, 0.609530, 1.164134
1014013, 0.721976, 1.164134
1014014, 0.851290, 1.164134
1014015, 1.000000, 1.164134
1015000, 0.000000, 1.183548
1015001, 0.021017, 1.183548
1015002, 0.045187, 1.183548
1015003, 0.072982, 1.183548
1015004, 0.104946, 1.183548
1015005, 0.141705, 1.183548
1015006, 0.183978, 1.183548
1015007, 0.232592, 1.183548
1015008, 0.288497, 1.183548
1015009, 0.352789, 1.183548
1015010, 0.426724, 1.183548
1015011, 0.511750, 1.183548
1015012, 0.609530, 1.183548
1015013, 0.721976, 1.183548
1015014, 0.851290, 1.183548
1015015, 1.000000, 1.183548
1016000, 0.000000, 1.200000
1016001, 0.021017, 1.200000
1016002, 0.045187, 1.200000
1016003, 0.072982, 1.200000
1016004, 0.104946, 1.200000
1016005, 0.141705, 1.200000
1016006, 0.183978, 1.200000
1016007, 0.232592, 1.200000
1016008, 0.288497, 1.200000
1016009, 0.352789, 1.200000
1016010, 0.426724, 1.200000
1016011, 0.511750, 1.200000
1016012, 0.609530, 1.200000
1016013, 0.721976, 1.200000
1016014, 0.851290, 1.200000
1016015, 1.000000, 1.200000
*ELEMENT, TYPE=CPE4R
1, 1, 2, 1002, 1001
2, 2, 3, 1003, 1002
3, 3, 4, 1004, 1003
4, 4, 5, 1005, 1004
5, 5, 6, 1006, 1005
6, 6, 7, 1007, 1006
7, 7, 8, 1008, 1007
8, 8, 9, 1009, 1008
9, 9, 10, 1010, 1009
10, 10, 11, 1011, 1010
11, 11, 12, 1012, 1011
12, 12, 13, 1013, 1012
13, 13, 14, 1014, 1013
14, 14, 15, 1015, 1014
15, 15, 16, 1016, 1015
16, 1001, 1002, 2002, 2001
17, 1002, 1003, 2003, 2002
18, 1003, 1004, 2004, 2003
19, 1004, 1005, 2005, 2004
20, 1005, 1006, 2006, 2005
21, 1006, 1007, 2007, 2006
22, 1007, 1008, 2008, 2007
23, 1008, 1009, 2009, 2008
24, 1009, 1010, 2010, 2009
25, 1010, 1011, 2011, 2010
26, 1011, 1012, 2012, 2011
27, 1012, 1013, 2013, 2012
28, 1013, 1014, 2014, 2013
29, 1014, 1015, 2015, 2014
30, 1015, 1016, 2016, 2015
31, 2001, 2002, 3002, 3001
32, 2002, 2003, 3003, 3002
33, 2003, 2004, 3004, 3003
34, 2004, 2005, 3005, 3004
35, 2005, 2006, 3006, 3005
36, 2006, 2007, 3007, 3006
37, 2007, 2008, 3008, 3007
38, 2008, 2009, 3009, 3008
39, 2009, 2010, 3010, 3009
40, 2010, 2011, 3011, 3010
41, 2011, 2012, 3012, 3011
42, 2012, 2013, 3013, 3012
43, 2013, 2014, 3014, 3013
44, 2014, 2015, 3015, 3014
45, 2015, 2016, 3016, 3015
46, 3001, 3002, 4002, 4001
47, 3002, 3003, 4003, 4002
48, 3003, 3004, 4004, 4003
49, 3004, 3005, 4005, 4004
50, 3005, 3006, 4006, 4005
51, 3006, 3007, 4007, 4006
52, 3007, 3008, 4008, 4007
53, 3008, 3009, 4009, 4008
54, 3009, 3010, 4010, 4009
55, 3010, 3011, 4011, 4010
56, 3011, 3012, 4012, 4011
57, 3012, 3013, 4013, 4012
58, 3013, 3014, 4014, 4013
59, 3014, 3015, 4015, 4014
60, 3015, 3016, 4016, 4015
61, 4001, 4002, 5002, 5001
62, 4002, 4003, 5003, 5002
63, 4003, 4004, 5004, 5003
64, 4004, 4005, 5005, 5004
65, 4005, 4006, 5006, 5005
66, 4006, 4007, 5007, 5006
67, 4007, 4008, 5008, 5007
68, 4008, 4009, 5009, 5008
69, 4009, 4010, 5010, 5009
70, 4010, 4011, 5011, 5010
71, 4011, 4012, 5012, 5011
72, 4012, 4013, 5013, 5012
73, 4013, 4014, 5014, 5013
74, 4014, 4015, 5015, 5014
75, 4015, 4016, 5016, 5015
76, 5001, 5002, 6002, 6001
77, 5002, 5003, 6003, 6002
78, 5003, 5004, 6004, 6003
79, 5004, 5005, 6005, 6004
80, 5005, 5006, 6006, 6005
81, 5006, 5007, 6007, 6006
82, 5007, 5008, 6008, 6007
83, 5008, 5009, 6009, 6008
84, 5009, 5010, 6010, 6009
85, 5010, 5011, 6011, 6010
86, 5011, 5012, 6012, 6011
87, 5012, 5013, 6013, 6012
88, 5013, 5014, 6014, 6013
89, 5014, 5015, 6015, 6014
90, 5015, 5016, 6016, 6015
91, 6001, 6002, 7002, 7001
92, 6002, 6003, 7003, 7002
93, 6003, 6004, 7004, 7003
94, 6004, 6005, 7005, 7004
95, 6005, 6006, 7006, 7005
96, 6006, 6007, 7007, 7006
97, 6007, 6008, 7008, 7007
98, 6008, 6009, 7009, 7008
99, 6009, 6010, 7010, 7009
100, 6010, 6011, 7011, 7010
101, 6011, 6012, 7012, 7011
102, 6012, 6013, 7013, 7012
103, 6013, 6014, 7014, 7013
104, 6014, 6015, 7015, 7014
105, 6015, 6016, 7016, 7015
106, 7001, 7002, 8002, 8001
107, 7002, 7003, 8003, 8002
108, 7003, 7004, 8004, 8003
109, 7004, 7005, 8005, 8004
110, 7005, 7006, 8006, 8005
111, 7006, 7007, 8007, 8006
112, 7007, 7008, 8008, 8007
113, 7008, 7009, 8009, 8008
114, 7009, 7010, 8010, 8009
115, 7010, 7011, 8011, 8010
116, 7011, 7012, 8012, 8011
117, 7012, 7013, 8013, 8012
118, 7013, 7014, 8014, 8013
119, 7014, 7015, 8015, 8014
120, 7015, 7016, 8016, 8015
121, 8001, 8002, 9002, 9001
122, 8002, 8003, 9003, 9002
123, 8003, 8004, 9004, 9003
124, 8004, 8005, 9005, 9004
125, 8005, 8006, 9006, 9005
126, 8006, 8007, 9007, 9006
127, 8007, 8008, 9008, 9007
128, 8008, 8009, 9009, 9008
129, 8009, 8010, 9010, 9009
130, 8010, 8011, 9011, 9010
131, 8011, 8012, 9012, 9011
132, 8012, 8013, 9013, 9012
133, 8013, 8014, 9014, 9013
134, 8014, 8015, 9015, 9014
135, 8015, 8016, 9016, 9015
136, 9001, 9002, 10002, 10001
137, 9002, 9003, 10003, 10002
138, 9003, 9004, 10004, 10003
139, 9004, 9005, 10005, 10004
140, 9005, 9006, 10006, 10005
141, 9006, 9007, 10007, 10006
142, 9007, 9008, 10008, 10007
143, 9008, 9009, 10009, 10008
144, 9009, 9010, 10010, 10009
145, 9010, 9011, 10011, 10010
146, 9011, 9012, 10012, 10011
147, 9012, 9013, 10013, 10012
148, 9013, 9014, 10014, 10013
149, 9014, 9015, 10015, 10014
150, 9015, 9016, 10016, 10015
151, 10001, 10002, 11002, 11001
152, 10002, 10003, 11003, 11002
153, 10003, 10004, 11004, 11003
154, 10004, 10005, 11005, 11004
155, 10005, 10006, 11006, 11005
156, 10006, 10007, 11007, 11006
157, 10007, 10008, 11008, 11007
158, 10008, 10009, 11009, 11008
159, 10009, 10010, 11010, 11009
160, 10010, 10011, 11011, 11010
161, 10011, 10012, 11012, 11011
162, 10012, 10013, 11013, 11012
163, 10013, 10014, 11014, 11013
164, 10014, 10015, 11015, 11014
165, 10015, 10016, 11016, 11015
166, 11001, 11002, 12002, 12001
167, 11002, 11003, 12003, 12002
168, 11003, 11004, 12004, 12003
169, 11004, 11005, 12005, 12004
170, 11005, 11006, 12006, 12005
171, 11006, 11007, 12007, 12006
172, 11007, 11008, 12008, 12007
173, 11008, 11009, 12009, 12008
174, 11009, 11010, 12010, 12009
175, 11010, 11011, 12011, 12010
176, 11011, 11012, 12012, 12011
177, 11012, 11013, 12013, 12012
178, 11013, 11014, 12014, 12013
179, 11014, 11015, 12015, 12014
180, 11015, 11016, 12016, 12015
181, 12001, 12002, 13002, 13001
182, 12002, 12003, 13003, 13002
183, 12003, 12004, 13004, 13003
184, 12004, 12005, 13005, 13004
185, 12005, 12006, 13006, 13005
186, 12006, 12007, 13007, 13006
187, 12007, 12008, 13008, 13007
188, 12008, 12009, 13009, 13008
189, 12009, 12010, 13010, 13009
190, 12010, 12011, 13011, 13010
191, 12011, 12012, 13012, 13011
192, 12012, 12013, 13013, 13012
193, 12013, 12014, 13014, 13013
194, 12014, 12015, 13015, 13014
195, 12015, 12016, 13016, 13015
196, 13001, 13002, 14002, 14001
197, 13002, 13003, 14003, 14002
198, 13003, 13004, 14004, 14003
199, 13004, 13005, 14005, 14004
200, 13005, 13006, 14006, 14005
201, 13006, 13007, 14007, 14006
202, 13007, 13008, 14008, 14007
203, 13008, 13009, 14009, 14008
204, 13009, 13010, 14010, 14009
205, 13010, 13011, 14011, 14010
206, 13011, 13012, 14012, 14011
207, 13012, 13013, 14013, 14012
208, 13013, 13014, 14014, 14013
209, 13014, 13015, 14015, 14014
210, 13015, 13016, 14016, 14015
211, 14001, 14002, 15002, 15001
212, 14002, 14003, 15003, 15002
213, 14003, 14004, 15004, 15003
214, 14004, 14005, 15005, 15004
215, 14005, 14006, 15006, 15005
216, 14006, 14007, 15007, 15006
217, 14007, 14008, 15008, 15007
218, 14008, 14009, 15009, 15008
219, 14009, 14010, 15010, 15009
220, 14010, 14011, 15011, 15010
221, 14011, 14012, 15012, 15011
222, 14012, 14013, 15013, 15012
223, 14013, 14014, 15014, 15013
224, 14014, 14015, 15015, 15014
225, 14015, 14016, 15016, 15015
226, 15001, 15002, 16002, 16001
227, 15002, 15003, 16003, 16002
228, 15003, 15004, 16004, 16003
229, 15004, 15005, 16005, 16004
230, 15005, 15006, 16006, 16005
231, 15006, 15007, 16007, 16006
232, 15007, 15008, 16008, 16007
233, 15008, 15009, 16009, 16008
234, 15009, 15010, 16010, 16009
235, 15010, 15011, 16011, 16010
236, 15011, 15012, 16012, 16011
237, 15012, 15013, 16013, 16012
238, 15013, 15014, 16014, 16013
239, 15014, 15015, 16015, 16014
240, 15015, 15016, 16016, 16015
241, 1000000, 1000001, 1001001, 1001000
242, 1000001, 1000002, 1001002, 1001001
243, 1000002, 1000003, 1001003, 1001002
244, 1000003, 1000004, 1001004, 1001003
245, 1000004, 1000005, 1001005, 1001004
246, 1000005, 1000006, 1001006, 1001005
247, 1000006, 1000007, 1001007, 1001006
248, 1000007, 1000008, 1001008, 1001007
249, 1000008, 1000009, 1001009, 1001008
250, 1000009, 1000010, 1001010, 1001009
251, 1000010, 1000011, 1001011, 1001010
252, 1000011, 1000012, 1001012, 1001011
253, 1000012, 1000013, 1001013, 1001012
254, 1000013, 1000014, 1001014, 1001013
255, 1000014, 1000015, 1001015, 1001014
256, 1001000, 1001001, 1002001, 1002000
257, 1001001, 1001002, 1002002, 1002001
258, 1001002, 1001003, 1002003, 1002002
259, 1001003, 1001004, 1002004, 1002003
260, 1001004, 1001005, 1002005, 1002004
261, 1001005, 1001006, 1002006, 1002005
262, 1001006, 1001007, 1002007, 1002006
263, 1001007, 1001008, 1002008, 1002007
264, 1001008, 1001009, 1002009, 1002008
265, 1001009, 1001010, 1002010, 1002009
266, 1001010, 1001011, 1002011, 1002010
267, 1001011, 1001012, 1002012, 1002011
268, 1001012, 1001013, 1002013, 1002012
269, 1001013, 1001014, 1002014, 1002013
270, 1001014, 1001015, 1002015, 1002014
271, 1002000, 1002001, 1003001, 1003000
272, 1002001, 1002002, 1003002, 1003001
273, 1002002, 1002003, 1003003, 1003002
274, 1002003, 1002004, 1003004, 1003003
275, 1002004, 1002005, 1003005, 1003004
276, 1002005, 1002006, 1003006, 1003005
277, 1002006, 1002007, 1003007, 1003006
278, 1002007, 1002008, 1003008, 1003007
279, 1002008, 1002009, 1003009, 1003008
280, 1002009, 1002010, 1003010, 1003009
281, 1002010, 1002011, 1003011, 1003010
282, 1002011, 1002012, 1003012, 1003011
283, 1002012, 1002013, 1003013, 1003012
284, 1002013, 1002014, 1003014, 1003013
285, 1002014, 1002015, 1003015, 1003014
286, 1003000, 1003001, 1004001, 1004000
287, 1003001, 1003002, 1004002, 1004001
288, 1003002, 1003003, 1004003, 1004002
289, 1003003, 1003004, 1004004, 1004003
290, 1003004, 1003005, 1004005, 1004004
291, 1003005, 1003006, 1004006, 1004005
292, 1003006, 1003007, 1004007, 1004006
293, 1003007, 1003008, 1004008, 1004007
294, 1003008, 1003009, 1004009, 1004008
295, 1003009, 1003010, 1004010, 1004009
296, 1003010, 1003011, 1004011, 1004010
297, 1003011, 1003012, 1004012, 1004011
298, 1003012, 1003013, 1004013, 1004012
299, 1003013, 1003014, 1004014, 1004013
300, 1003014, 1003015, 1004015, 1004014
301, 1004000, 1004001, 1005001, 1005000
302, 1004001, 1004002, 1005002, 1005001
303, 1004002, 1004003, 1005003, 1005002
304, 1004003, 1004004, 1005004, 1005003
305, 1004004, 1004005, 1005005, 1005004
306, 1004005, 1004006, 1005006, 1005005
307, 1004006, 1004007, 1005007, 1005006
308, 1004007, 1004008, 1005008, 1005007
309, 1004008, 1004009, 1005009, 1005008
310, 1004009, 1004010, 1005010, 1005009
311, 1004010, 1004011, 1005011, 1005010
312, 1004011, 1004012, 1005012, 1005011
313, 1004012, 1004013, 1005013, 1005012
314, 1004013, 1004014, 1005014, 1005013
315, 1004014, 1004015, 1005015, 1005014
316, 1005000, 1005001, 1006001, 1006000
317, 1005001, 1005002, 1006002, 1006001
318, 1005002, 1005003, 1006003, 1006002
319, 1005003, 1005004, 1006004, 1006003
320, 1005004, 1005005, 1006005, 1006004
321, 1005005, 1005006, 1006006, 1006005
322, 1005006, 1005007, 1006007, 1006006
323, 1005007, 1005008, 1006008, 1006007
324, 1005008, 1005009, 1006009, 1006008
325, 1005009, 1005010, 1006010, 1006009
326, 1005010, 1005011, 1006011, 1006010
327, 1005011, 1005012, 1006012, 1006011
328, 1005012, 1005013, 1006013, 1006012
329, 1005013, 1005014, 1006014, 1006013
330, 1005014, 1005015, 1006015, 1006014
331, 1006000, 1006001, 1007001, 1007000
332, 1006001, 1006002, 1007002, 1007001
333, 1006002, 1006003, 1007003, 1007002
334, 1006003, 1006004, 1007004, 1007003
335, 1006004, 1006005, 1007005, 1007004
336, 1006005, 1006006, 1007006, 1007005
337, 1006006, 1006007, 1007007, 1007006
338, 1006007, 1006008, 1007008, 1007007
339, 1006008, 1006009, 1007009, 1007008
340, 1006009, 1006010, 1007010, 1007009
341, 1006010, 1006011, 1007011, 1007010
342, 1006011, 1006012, 1007012, 1007011
343, 1006012, 1006013, 1007013, 1007012
344, 1006013, 1006014, 1007014, 1007013
345, 1006014, 1006015, 1007015, 1007014
346, 1007000, 1007001, 1008001, 1008000
347, 1007001, 1007002, 1008002, 1008001
348, 1007002, 1007003, 1008003, 1008002
349, 1007003, 1007004, 1008004, 1008003
350, 1007004, 1007005, 1008005, 1008004
351, 1007005, 1007006, 1008006, 1008005
352, 1007006, 1007007, 1008007, 1008006
353, 1007007, 1007008, 1008008, 1008007
354, 1007008, 1007009, 1008009, 1008008
355, 1007009, 1007010, 1008010, 1008009
356, 1007010, 1007011, 1008011, 1008010
357, 1007011, 1007012, 1008012, 1008011
358, 1007012, 1007013, 1008013, 1008012
359, 1007013, 1007014, 1008014, 1008013
360, 1007014, 1007015, 1008015, 1008014
361, 1008000, 1008001, 1009001, 1009000
362, 1008001, 1008002, 1009002, 1009001
363, 1008002, 1008003, 1009003, 1009002
364, 1008003, 1008004, 1009004, 1009003
365, 1008004, 1008005, 1009005, 1009004
366, 1008005, 1008006, 1009006, 1009005
367, 1008006, 1008007, 1009007, 1009006
368, 1008007, 1008008, 1009008, 1009007
369, 1008008, 1008009, 1009009, 1009008
370, 1008009, 1008010, 1009010, 1009009
371, 1008010, 1008011, 1009011, 1009010
372, 1008011, 1008012, 1009012, 1009011
373, 1008012, 1008013, 1009013, 1009012
374, 1008013, 1008014, 1009014, 1009013
375, 1008014, 1008015, 1009015, 1009014
376, 1009000, 1009001, 1010001, 1010000
377, 1009001, 1009002, 1010002, 1010001
378, 1009002, 1009003, 1010003, 1010002
379, 1009003, 1009004, 1010004, 1010003
380, 1009004, 1009005, 1010005, 1010004
381, 1009005, 1009006, 1010006, 1010005
382, 1009006, 1009007, 1010007, 1010006
383, 1009007, 1009008, 1010008, 1010007
384, 1009008, 1009009, 1010009, 1010008
385, 1009009, 1009010, 1010010, 1010009
386, 1009010, 1009011, 1010011, 1010010
387, 1009011, 1009012, 1010012, 1010011
388, 1009012, 1009013, 1010013, 1010012
389, 1009013, 1009014, 1010014, 1010013
390, 1009014, 1009015, 1010015, 1010014
391, 1010000, 1010001, 1011001, 1011000
392, 1010001, 1010002, 1011002, 1011001
393, 1010002, 1010003, 1011003, 1011002
394, 1010003, 1010004, 1011004, 1011003
395, 1010004, 1010005, 1011005, 1011004
396, 1010005, 1010006, 1011006, 1011005
397, 1010006, 1010007, 1011007, 1011006
398, 1010007, 1010008, 1011008, 1011007
399, 1010008, 1010009, 1011009, 1011008
400, 1010009, 1010010, 1011010, 1011009
401, 1010010, 1010011, 1011011, 1011010
402, 1010011, 1010012, 1011012, 1011011
403, 1010012, 1010013, 1011013, 1011012
404, 1010013, 1010014, 1011014, 1011013
405, 1010014, 1010015, 1011015, 1011014
406, 1011000, 1011001, 1012001, 1012000
407, 1011001, 1011002, 1012002, 1012001
408, 1011002, 1011003, 1012003, 1012002
409, 1011003, 1011004, 1012004, 1012003
410, 1011004, 1011005, 1012005, 1012004
411, 1011005, 1011006, 1012006, 1012005
412, 1011006, 1011007, 1012007, 1012006
413, 1011007, 1011008, 1012008, 1012007
414, 1011008, 1011009, 1012009, 1012008
415, 1011009, 1011010, 1012010, 1012009
416, 1011010, 1011011, 1012011, 1012010
417, 1011011, 1011012, 1012012, 1012011
418, 1011012, 1011013, 1012013, 1012012
419, 1011013, 1011014, 1012014, 1012013
420, 1011014, 1011015, 1012015, 1012014
421, 1012000, 1012001, 1013001, 1013000
422, 1012001, 1012002, 1013002, 1013001
423, 1012002, 1012003, 1013003, 1013002
424, 1012003, 1012004, 1013004, 1013003
425, 1012004, 1012005, 1013005, 1013004
426, 1012005, 1012006, 1013006, 1013005
427, 1012006, 1012007, 1013007, 1013006
428, 1012007, 1012008, 1013008, 1013007
429, 1012008, 1012009, 1013009, 1013008
430, 1012009, 1012010, 1013010, 1013009
431, 1012010, 1012011, 1013011, 1013010
432, 1012011, 1012012, 1013012, 1013011
433, 1012012, 1012013, 1013013, 1013012
434, 1012013, 1012014, 1013014, 1013013
435, 1012014, 1012015, 1013015, 1013014
436, 1013000, 1013001, 1014001, 1014000
437, 1013001, 1013002, 1014002, 1014001
438, 1013002, 1013003, 1014003, 1014002
439, 1013003, 1013004, 1014004, 1014003
440, 1013004, 1013005, 1014005, 1014004
441, 1013005, 1013006, 1014006, 1014005
442, 1013006, 1013007, 1014007, 1014006
443, 1013007, 1013008, 1014008, 1014007
444, 1013008, 1013009, 1014009, 1014008
445, 1013009, 1013010, 1014010, 1014009
446, 1013010, 1013011, 1014011, 1014010
447, 1013011, 1013012, 1014012, 1014011
448, 1013012, 1013013, 1014013, 1014012
449, 1013013, 1013014, 1014014, 1014013
450, 1013014, 1013015, 1014015, 1014014
451, 1014000, 1014001, 1015001, 1015000
452, 1014001, 1014002, 1015002, 1015001
453, 1014002, 1014003, 1015003, 1015002
454, 1014003, 1014004, 1015004, 1015003
455, 1014004, 1014005, 1015005, 1015004
456, 1014005, 1014006, 1015006, 1015005
457, 1014006, 1014007, 1015007, 1015006
458, 1014007, 1014008, 1015008, 1015007
459, 1014008, 1014009, 1015009, 1015008
460, 1014009, 1014010, 1015010, 1015009
461, 1014010, 1014011, 1015011, 1015010
462, 1014011, 1014012, 1015012, 1015011
463, 1014012, 1014013, 1015013, 1015012
464, 1014013, 1014014, 1015014, 1015013
465, 1014014, 1014015, 1015015, 1015014
466, 1015000, 1015001, 1016001, 1016000
467, 1015001, 1015002, 1016002, 1016001
468, 1015002, 1015003, 1016003, 1016002
469, 1015003, 1015004, 1016004, 1016003
470, 1015004, 1015005, 1016005, 1016004
471, 1015005, 1015006, 1016006, 1016005
472, 1015006, 1015007, 1016007, 1016006
473, 1015007, 1015008, 1016008, 1016007
474, 1015008, 1015009, 1016009, 1016008
475, 1015009, 1015010, 1016010, 1016009
476, 1015010, 1015011, 1016011, 1016010
477, 1015011, 1015012, 1016012, 1016011
478, 1015012, 1015013, 1016013, 1016012
479, 1015013, 1015014, 1016014, 1016013
480, 1015014, 1015015, 1016015, 1016014
*ELEMENT, TYPE=COH2D4
481, 16, 1016, 1001000, 1000000
482, 1016, 2016, 1002000, 1001000
483, 2016, 3016, 1003000, 1002000
484, 3016, 4016, 1004000, 1003000
485, 4016, 5016, 1005000, 1004000
486, 5016, 6016, 1006000, 1005000
487, 6016, 7016, 1007000, 1006000
488, 7016, 8016, 1008000, 1007000
489, 8016, 9016, 1009000, 1008000
490, 9016, 10016, 1010000, 1009000
491, 10016, 11016, 1011000, 1010000
492, 11016, 12016, 1012000, 1011000
493, 12016, 13016, 1013000, 1012000
494, 13016, 14016, 1014000, 1013000
495, 14016, 15016, 1015000, 1014000
496, 15016, 16016, 1016000, 1015000
*ELSET, ELSET=BULK, GENERATE
1, 480, 1
*ELSET, ELSET=COH, GENERATE
481, 496, 1
*SURFACE, TYPE=ELEMENT, NAME=SKIN_SURF
BULK,
*NSET, NSET=NBOT
1, 2, 3, 4, 5, 6, 7, 8, 9, 10, 11, 12
13, 14, 15, 16, 1000000, 1000001, 1000002, 1000003, 1000004, 1000005, 1000006, 1000007
1000008, 1000009, 1000010, 1000011, 1000012, 1000013, 1000014, 1000015
*NODE
9999, 0.0, 1.22000
*NSET, NSET=NREF
9999,
*SURFACE, TYPE=SEGMENTS, NAME=NEEDLE, FILLET RADIUS=0.01
START, -0.20, 1.80000
LINE,   0.00, 1.22000
LINE,   0.20, 1.80000
*RIGID BODY, ANALYTICAL SURFACE=NEEDLE, REF NODE=NREF
*MATERIAL, NAME=SKIN
*DENSITY
1.1e-9,
*HYPERELASTIC, NEO HOOKE
0.05, 0.5
*SOLID SECTION, ELSET=BULK, MATERIAL=SKIN
*MATERIAL, NAME=COHMAT
*DENSITY
1.1e-9,
*ELASTIC, TYPE=TRACTION
1000.0, 1000.0, 1000.0
*DAMAGE INITIATION, CRITERION=MAXS
0.15, 0.15, 0.15
*DAMAGE EVOLUTION, TYPE=ENERGY
0.01,
*COHESIVE SECTION, ELSET=COH, MATERIAL=COHMAT, RESPONSE=TRACTION SEPARATION, THICKNESS=SPECIFIED
1.0,
*SURFACE INTERACTION, NAME=IPROP
*FRICTION
0.1,
*SURFACE BEHAVIOR, PRESSURE-OVERCLOSURE=HARD
*BOUNDARY
NBOT, 1, 2
NREF, 1, 1
NREF, 6, 6
*AMPLITUDE, NAME=PUSH, DEFINITION=SMOOTH STEP
0.0, 0.0, 0.01, 1.0
*STEP, NAME=CUT
*DYNAMIC, EXPLICIT
, 0.01
*FIXED MASS SCALING, DT=5.0e-7, TYPE=BELOW MIN
*BOUNDARY, AMPLITUDE=PUSH
NREF, 2, 2, -0.8
*CONTACT
*CONTACT INCLUSIONS, ALL EXTERIOR
*CONTACT INCLUSIONS
NEEDLE, SKIN_SURF
*CONTACT PROPERTY ASSIGNMENT
 ,  , IPROP
*OUTPUT, FIELD, NUMBER INTERVAL=25
*ELEMENT OUTPUT, ELSET=BULK
S, LE
*ELEMENT OUTPUT, ELSET=COH
SDEG, STATUS
*NODE OUTPUT
U, V
*OUTPUT, HISTORY, TIME INTERVAL=1.0e-4
*NODE OUTPUT, NSET=NREF
U2, V2, RF2
*ENERGY OUTPUT
ALLIE, ALLKE, ALLSE, ALLDMD
*END STEP
