*HEADING
[C] user VUMAT CZM : axisymmetric cohesive cutting (coring incision)
Bulk: built-in Neo-Hookean; r=50 um: COHAX4 traction-separation
Units: um, uN, MPa, s
*NODE
1, 0.0000, 0.0000
2, 5.0000, 0.0000
3, 10.0000, 0.0000
4, 15.0000, 0.0000
5, 20.0000, 0.0000
6, 25.0000, 0.0000
7, 30.0000, 0.0000
8, 35.0000, 0.0000
9, 40.0000, 0.0000
10, 45.0000, 0.0000
11, 50.0000, 0.0000
10001, 0.0000, 37.0942
10002, 5.0000, 37.0942
10003, 10.0000, 37.0942
10004, 15.0000, 37.0942
10005, 20.0000, 37.0942
10006, 25.0000, 37.0942
10007, 30.0000, 37.0942
10008, 35.0000, 37.0942
10009, 40.0000, 37.0942
10010, 45.0000, 37.0942
10011, 50.0000, 37.0942
20001, 0.0000, 72.5910
20002, 5.0000, 72.5910
20003, 10.0000, 72.5910
20004, 15.0000, 72.5910
20005, 20.0000, 72.5910
20006, 25.0000, 72.5910
20007, 30.0000, 72.5910
20008, 35.0000, 72.5910
20009, 40.0000, 72.5910
20010, 45.0000, 72.5910
20011, 50.0000, 72.5910
30001, 0.0000, 106.5592
30002, 5.0000, 106.5592
30003, 10.0000, 106.5592
30004, 15.0000, 106.5592
30005, 20.0000, 106.5592
30006, 25.0000, 106.5592
30007, 30.0000, 106.5592
30008, 35.0000, 106.5592
30009, 40.0000, 106.5592
30010, 45.0000, 106.5592
30011, 50.0000, 106.5592
40001, 0.0000, 139.0647
40002, 5.0000, 139.0647
40003, 10.0000, 139.0647
40004, 15.0000, 139.0647
40005, 20.0000, 139.0647
40006, 25.0000, 139.0647
40007, 30.0000, 139.0647
40008, 35.0000, 139.0647
40009, 40.0000, 139.0647
40010, 45.0000, 139.0647
40011, 50.0000, 139.0647
50001, 0.0000, 170.1704
50002, 5.0000, 170.1704
50003, 10.0000, 170.1704
50004, 15.0000, 170.1704
50005, 20.0000, 170.1704
50006, 25.0000, 170.1704
50007, 30.0000, 170.1704
50008, 35.0000, 170.1704
50009, 40.0000, 170.1704
50010, 45.0000, 170.1704
50011, 50.0000, 170.1704
60001, 0.0000, 199.9367
60002, 5.0000, 199.9367
60003, 10.0000, 199.9367
60004, 15.0000, 199.9367
60005, 20.0000, 199.9367
60006, 25.0000, 199.9367
60007, 30.0000, 199.9367
60008, 35.0000, 199.9367
60009, 40.0000, 199.9367
60010, 45.0000, 199.9367
60011, 50.0000, 199.9367
70001, 0.0000, 228.4212
70002, 5.0000, 228.4212
70003, 10.0000, 228.4212
70004, 15.0000, 228.4212
70005, 20.0000, 228.4212
70006, 25.0000, 228.4212
70007, 30.0000, 228.4212
70008, 35.0000, 228.4212
70009, 40.0000, 228.4212
70010, 45.0000, 228.4212
70011, 50.0000, 228.4212
80001, 0.0000, 255.6790
80002, 5.0000, 255.6790
80003, 10.0000, 255.6790
80004, 15.0000, 255.6790
80005, 20.0000, 255.6790
80006, 25.0000, 255.6790
80007, 30.0000, 255.6790
80008, 35.0000, 255.6790
80009, 40.0000, 255.6790
80010, 45.0000, 255.6790
80011, 50.0000, 255.6790
90001, 0.0000, 281.7631
90002, 5.0000, 281.7631
90003, 10.0000, 281.7631
90004, 15.0000, 281.7631
90005, 20.0000, 281.7631
90006, 25.0000, 281.7631
90007, 30.0000, 281.7631
90008, 35.0000, 281.7631
90009, 40.0000, 281.7631
90010, 45.0000, 281.7631
90011, 50.0000, 281.7631
100001, 0.0000, 306.7239
100002, 5.0000, 306.7239
100003, 10.0000, 306.7239
100004, 15.0000, 306.7239
100005, 20.0000, 306.7239
100006, 25.0000, 306.7239
100007, 30.0000, 306.7239
100008, 35.0000, 306.7239
100009, 40.0000, 306.7239
100010, 45.0000, 306.7239
100011, 50.0000, 306.7239
110001, 0.0000, 330.6099
110002, 5.0000, 330.6099
110003, 10.0000, 330.6099
110004, 15.0000, 330.6099
110005, 20.0000, 330.6099
110006, 25.0000, 330.6099
110007, 30.0000, 330.6099
110008, 35.0000, 330.6099
110009, 40.0000, 330.6099
110010, 45.0000, 330.6099
110011, 50.0000, 330.6099
120001, 0.0000, 353.4672
120002, 5.0000, 353.4672
120003, 10.0000, 353.4672
120004, 15.0000, 353.4672
120005, 20.0000, 353.4672
120006, 25.0000, 353.4672
120007, 30.0000, 353.4672
120008, 35.0000, 353.4672
120009, 40.0000, 353.4672
120010, 45.0000, 353.4672
120011, 50.0000, 353.4672
130001, 0.0000, 375.3403
130002, 5.0000, 375.3403
130003, 10.0000, 375.3403
130004, 15.0000, 375.3403
130005, 20.0000, 375.3403
130006, 25.0000, 375.3403
130007, 30.0000, 375.3403
130008, 35.0000, 375.3403
130009, 40.0000, 375.3403
130010, 45.0000, 375.3403
130011, 50.0000, 375.3403
140001, 0.0000, 396.2715
140002, 5.0000, 396.2715
140003, 10.0000, 396.2715
140004, 15.0000, 396.2715
140005, 20.0000, 396.2715
140006, 25.0000, 396.2715
140007, 30.0000, 396.2715
140008, 35.0000, 396.2715
140009, 40.0000, 396.2715
140010, 45.0000, 396.2715
140011, 50.0000, 396.2715
150001, 0.0000, 416.3014
150002, 5.0000, 416.3014
150003, 10.0000, 416.3014
150004, 15.0000, 416.3014
150005, 20.0000, 416.3014
150006, 25.0000, 416.3014
150007, 30.0000, 416.3014
150008, 35.0000, 416.3014
150009, 40.0000, 416.3014
150010, 45.0000, 416.3014
150011, 50.0000, 416.3014
160001, 0.0000, 435.4687
160002, 5.0000, 435.4687
160003, 10.0000, 435.4687
160004, 15.0000, 435.4687
160005, 20.0000, 435.4687
160006, 25.0000, 435.4687
160007, 30.0000, 435.4687
160008, 35.0000, 435.4687
160009, 40.0000, 435.4687
160010, 45.0000, 435.4687
160011, 50.0000, 435.4687
170001, 0.0000, 453.8106
170002, 5.0000, 453.8106
170003, 10.0000, 453.8106
170004, 15.0000, 453.8106
170005, 20.0000, 453.8106
170006, 25.0000, 453.8106
170007, 30.0000, 453.8106
170008, 35.0000, 453.8106
170009, 40.0000, 453.8106
170010, 45.0000, 453.8106
170011, 50.0000, 453.8106
180001, 0.0000, 471.3627
180002, 5.0000, 471.3627
180003, 10.0000, 471.3627
180004, 15.0000, 471.3627
180005, 20.0000, 471.3627
180006, 25.0000, 471.3627
180007, 30.0000, 471.3627
180008, 35.0000, 471.3627
180009, 40.0000, 471.3627
180010, 45.0000, 471.3627
180011, 50.0000, 471.3627
190001, 0.0000, 488.1589
190002, 5.0000, 488.1589
190003, 10.0000, 488.1589
190004, 15.0000, 488.1589
190005, 20.0000, 488.1589
190006, 25.0000, 488.1589
190007, 30.0000, 488.1589
190008, 35.0000, 488.1589
190009, 40.0000, 488.1589
190010, 45.0000, 488.1589
190011, 50.0000, 488.1589
200001, 0.0000, 504.2319
200002, 5.0000, 504.2319
200003, 10.0000, 504.2319
200004, 15.0000, 504.2319
200005, 20.0000, 504.2319
200006, 25.0000, 504.2319
200007, 30.0000, 504.2319
200008, 35.0000, 504.2319
200009, 40.0000, 504.2319
200010, 45.0000, 504.2319
200011, 50.0000, 504.2319
210001, 0.0000, 519.6127
210002, 5.0000, 519.6127
210003, 10.0000, 519.6127
210004, 15.0000, 519.6127
210005, 20.0000, 519.6127
210006, 25.0000, 519.6127
210007, 30.0000, 519.6127
210008, 35.0000, 519.6127
210009, 40.0000, 519.6127
210010, 45.0000, 519.6127
210011, 50.0000, 519.6127
220001, 0.0000, 534.3312
220002, 5.0000, 534.3312
220003, 10.0000, 534.3312
220004, 15.0000, 534.3312
220005, 20.0000, 534.3312
220006, 25.0000, 534.3312
220007, 30.0000, 534.3312
220008, 35.0000, 534.3312
220009, 40.0000, 534.3312
220010, 45.0000, 534.3312
220011, 50.0000, 534.3312
230001, 0.0000, 548.4159
230002, 5.0000, 548.4159
230003, 10.0000, 548.4159
230004, 15.0000, 548.4159
230005, 20.0000, 548.4159
230006, 25.0000, 548.4159
230007, 30.0000, 548.4159
230008, 35.0000, 548.4159
230009, 40.0000, 548.4159
230010, 45.0000, 548.4159
230011, 50.0000, 548.4159
240001, 0.0000, 561.8941
240002, 5.0000, 561.8941
240003, 10.0000, 561.8941
240004, 15.0000, 561.8941
240005, 20.0000, 561.8941
240006, 25.0000, 561.8941
240007, 30.0000, 561.8941
240008, 35.0000, 561.8941
240009, 40.0000, 561.8941
240010, 45.0000, 561.8941
240011, 50.0000, 561.8941
250001, 0.0000, 574.7919
250002, 5.0000, 574.7919
250003, 10.0000, 574.7919
250004, 15.0000, 574.7919
250005, 20.0000, 574.7919
250006, 25.0000, 574.7919
250007, 30.0000, 574.7919
250008, 35.0000, 574.7919
250009, 40.0000, 574.7919
250010, 45.0000, 574.7919
250011, 50.0000, 574.7919
260001, 0.0000, 587.1342
260002, 5.0000, 587.1342
260003, 10.0000, 587.1342
260004, 15.0000, 587.1342
260005, 20.0000, 587.1342
260006, 25.0000, 587.1342
260007, 30.0000, 587.1342
260008, 35.0000, 587.1342
260009, 40.0000, 587.1342
260010, 45.0000, 587.1342
260011, 50.0000, 587.1342
270001, 0.0000, 598.9451
270002, 5.0000, 598.9451
270003, 10.0000, 598.9451
270004, 15.0000, 598.9451
270005, 20.0000, 598.9451
270006, 25.0000, 598.9451
270007, 30.0000, 598.9451
270008, 35.0000, 598.9451
270009, 40.0000, 598.9451
270010, 45.0000, 598.9451
270011, 50.0000, 598.9451
280001, 0.0000, 610.2474
280002, 5.0000, 610.2474
280003, 10.0000, 610.2474
280004, 15.0000, 610.2474
280005, 20.0000, 610.2474
280006, 25.0000, 610.2474
280007, 30.0000, 610.2474
280008, 35.0000, 610.2474
280009, 40.0000, 610.2474
280010, 45.0000, 610.2474
280011, 50.0000, 610.2474
290001, 0.0000, 621.0629
290002, 5.0000, 621.0629
290003, 10.0000, 621.0629
290004, 15.0000, 621.0629
290005, 20.0000, 621.0629
290006, 25.0000, 621.0629
290007, 30.0000, 621.0629
290008, 35.0000, 621.0629
290009, 40.0000, 621.0629
290010, 45.0000, 621.0629
290011, 50.0000, 621.0629
300001, 0.0000, 631.4128
300002, 5.0000, 631.4128
300003, 10.0000, 631.4128
300004, 15.0000, 631.4128
300005, 20.0000, 631.4128
300006, 25.0000, 631.4128
300007, 30.0000, 631.4128
300008, 35.0000, 631.4128
300009, 40.0000, 631.4128
300010, 45.0000, 631.4128
300011, 50.0000, 631.4128
310001, 0.0000, 641.3169
310002, 5.0000, 641.3169
310003, 10.0000, 641.3169
310004, 15.0000, 641.3169
310005, 20.0000, 641.3169
310006, 25.0000, 641.3169
310007, 30.0000, 641.3169
310008, 35.0000, 641.3169
310009, 40.0000, 641.3169
310010, 45.0000, 641.3169
310011, 50.0000, 641.3169
320001, 0.0000, 650.7946
320002, 5.0000, 650.7946
320003, 10.0000, 650.7946
320004, 15.0000, 650.7946
320005, 20.0000, 650.7946
320006, 25.0000, 650.7946
320007, 30.0000, 650.7946
320008, 35.0000, 650.7946
320009, 40.0000, 650.7946
320010, 45.0000, 650.7946
320011, 50.0000, 650.7946
330001, 0.0000, 659.8641
330002, 5.0000, 659.8641
330003, 10.0000, 659.8641
330004, 15.0000, 659.8641
330005, 20.0000, 659.8641
330006, 25.0000, 659.8641
330007, 30.0000, 659.8641
330008, 35.0000, 659.8641
330009, 40.0000, 659.8641
330010, 45.0000, 659.8641
330011, 50.0000, 659.8641
340001, 0.0000, 668.5431
340002, 5.0000, 668.5431
340003, 10.0000, 668.5431
340004, 15.0000, 668.5431
340005, 20.0000, 668.5431
340006, 25.0000, 668.5431
340007, 30.0000, 668.5431
340008, 35.0000, 668.5431
340009, 40.0000, 668.5431
340010, 45.0000, 668.5431
340011, 50.0000, 668.5431
350001, 0.0000, 676.8483
350002, 5.0000, 676.8483
350003, 10.0000, 676.8483
350004, 15.0000, 676.8483
350005, 20.0000, 676.8483
350006, 25.0000, 676.8483
350007, 30.0000, 676.8483
350008, 35.0000, 676.8483
350009, 40.0000, 676.8483
350010, 45.0000, 676.8483
350011, 50.0000, 676.8483
360001, 0.0000, 684.7959
360002, 5.0000, 684.7959
360003, 10.0000, 684.7959
360004, 15.0000, 684.7959
360005, 20.0000, 684.7959
360006, 25.0000, 684.7959
360007, 30.0000, 684.7959
360008, 35.0000, 684.7959
360009, 40.0000, 684.7959
360010, 45.0000, 684.7959
360011, 50.0000, 684.7959
370001, 0.0000, 692.4012
370002, 5.0000, 692.4012
370003, 10.0000, 692.4012
370004, 15.0000, 692.4012
370005, 20.0000, 692.4012
370006, 25.0000, 692.4012
370007, 30.0000, 692.4012
370008, 35.0000, 692.4012
370009, 40.0000, 692.4012
370010, 45.0000, 692.4012
370011, 50.0000, 692.4012
380001, 0.0000, 699.6791
380002, 5.0000, 699.6791
380003, 10.0000, 699.6791
380004, 15.0000, 699.6791
380005, 20.0000, 699.6791
380006, 25.0000, 699.6791
380007, 30.0000, 699.6791
380008, 35.0000, 699.6791
380009, 40.0000, 699.6791
380010, 45.0000, 699.6791
380011, 50.0000, 699.6791
390001, 0.0000, 706.6435
390002, 5.0000, 706.6435
390003, 10.0000, 706.6435
390004, 15.0000, 706.6435
390005, 20.0000, 706.6435
390006, 25.0000, 706.6435
390007, 30.0000, 706.6435
390008, 35.0000, 706.6435
390009, 40.0000, 706.6435
390010, 45.0000, 706.6435
390011, 50.0000, 706.6435
400001, 0.0000, 713.3081
400002, 5.0000, 713.3081
400003, 10.0000, 713.3081
400004, 15.0000, 713.3081
400005, 20.0000, 713.3081
400006, 25.0000, 713.3081
400007, 30.0000, 713.3081
400008, 35.0000, 713.3081
400009, 40.0000, 713.3081
400010, 45.0000, 713.3081
400011, 50.0000, 713.3081
410001, 0.0000, 719.6856
410002, 5.0000, 719.6856
410003, 10.0000, 719.6856
410004, 15.0000, 719.6856
410005, 20.0000, 719.6856
410006, 25.0000, 719.6856
410007, 30.0000, 719.6856
410008, 35.0000, 719.6856
410009, 40.0000, 719.6856
410010, 45.0000, 719.6856
410011, 50.0000, 719.6856
420001, 0.0000, 725.7885
420002, 5.0000, 725.7885
420003, 10.0000, 725.7885
420004, 15.0000, 725.7885
420005, 20.0000, 725.7885
420006, 25.0000, 725.7885
420007, 30.0000, 725.7885
420008, 35.0000, 725.7885
420009, 40.0000, 725.7885
420010, 45.0000, 725.7885
420011, 50.0000, 725.7885
430001, 0.0000, 731.6287
430002, 5.0000, 731.6287
430003, 10.0000, 731.6287
430004, 15.0000, 731.6287
430005, 20.0000, 731.6287
430006, 25.0000, 731.6287
430007, 30.0000, 731.6287
430008, 35.0000, 731.6287
430009, 40.0000, 731.6287
430010, 45.0000, 731.6287
430011, 50.0000, 731.6287
440001, 0.0000, 737.2173
440002, 5.0000, 737.2173
440003, 10.0000, 737.2173
440004, 15.0000, 737.2173
440005, 20.0000, 737.2173
440006, 25.0000, 737.2173
440007, 30.0000, 737.2173
440008, 35.0000, 737.2173
440009, 40.0000, 737.2173
440010, 45.0000, 737.2173
440011, 50.0000, 737.2173
450001, 0.0000, 742.5652
450002, 5.0000, 742.5652
450003, 10.0000, 742.5652
450004, 15.0000, 742.5652
450005, 20.0000, 742.5652
450006, 25.0000, 742.5652
450007, 30.0000, 742.5652
450008, 35.0000, 742.5652
450009, 40.0000, 742.5652
450010, 45.0000, 742.5652
450011, 50.0000, 742.5652
460001, 0.0000, 747.6829
460002, 5.0000, 747.6829
460003, 10.0000, 747.6829
460004, 15.0000, 747.6829
460005, 20.0000, 747.6829
460006, 25.0000, 747.6829
460007, 30.0000, 747.6829
460008, 35.0000, 747.6829
460009, 40.0000, 747.6829
460010, 45.0000, 747.6829
460011, 50.0000, 747.6829
470001, 0.0000, 752.5802
470002, 5.0000, 752.5802
470003, 10.0000, 752.5802
470004, 15.0000, 752.5802
470005, 20.0000, 752.5802
470006, 25.0000, 752.5802
470007, 30.0000, 752.5802
470008, 35.0000, 752.5802
470009, 40.0000, 752.5802
470010, 45.0000, 752.5802
470011, 50.0000, 752.5802
480001, 0.0000, 757.2666
480002, 5.0000, 757.2666
480003, 10.0000, 757.2666
480004, 15.0000, 757.2666
480005, 20.0000, 757.2666
480006, 25.0000, 757.2666
480007, 30.0000, 757.2666
480008, 35.0000, 757.2666
480009, 40.0000, 757.2666
480010, 45.0000, 757.2666
480011, 50.0000, 757.2666
490001, 0.0000, 761.7512
490002, 5.0000, 761.7512
490003, 10.0000, 761.7512
490004, 15.0000, 761.7512
490005, 20.0000, 761.7512
490006, 25.0000, 761.7512
490007, 30.0000, 761.7512
490008, 35.0000, 761.7512
490009, 40.0000, 761.7512
490010, 45.0000, 761.7512
490011, 50.0000, 761.7512
500001, 0.0000, 766.0427
500002, 5.0000, 766.0427
500003, 10.0000, 766.0427
500004, 15.0000, 766.0427
500005, 20.0000, 766.0427
500006, 25.0000, 766.0427
500007, 30.0000, 766.0427
500008, 35.0000, 766.0427
500009, 40.0000, 766.0427
500010, 45.0000, 766.0427
500011, 50.0000, 766.0427
510001, 0.0000, 770.1494
510002, 5.0000, 770.1494
510003, 10.0000, 770.1494
510004, 15.0000, 770.1494
510005, 20.0000, 770.1494
510006, 25.0000, 770.1494
510007, 30.0000, 770.1494
510008, 35.0000, 770.1494
510009, 40.0000, 770.1494
510010, 45.0000, 770.1494
510011, 50.0000, 770.1494
520001, 0.0000, 774.0792
520002, 5.0000, 774.0792
520003, 10.0000, 774.0792
520004, 15.0000, 774.0792
520005, 20.0000, 774.0792
520006, 25.0000, 774.0792
520007, 30.0000, 774.0792
520008, 35.0000, 774.0792
520009, 40.0000, 774.0792
520010, 45.0000, 774.0792
520011, 50.0000, 774.0792
530001, 0.0000, 777.8398
530002, 5.0000, 777.8398
530003, 10.0000, 777.8398
530004, 15.0000, 777.8398
530005, 20.0000, 777.8398
530006, 25.0000, 777.8398
530007, 30.0000, 777.8398
530008, 35.0000, 777.8398
530009, 40.0000, 777.8398
530010, 45.0000, 777.8398
530011, 50.0000, 777.8398
540001, 0.0000, 781.4385
540002, 5.0000, 781.4385
540003, 10.0000, 781.4385
540004, 15.0000, 781.4385
540005, 20.0000, 781.4385
540006, 25.0000, 781.4385
540007, 30.0000, 781.4385
540008, 35.0000, 781.4385
540009, 40.0000, 781.4385
540010, 45.0000, 781.4385
540011, 50.0000, 781.4385
550001, 0.0000, 784.8822
550002, 5.0000, 784.8822
550003, 10.0000, 784.8822
550004, 15.0000, 784.8822
550005, 20.0000, 784.8822
550006, 25.0000, 784.8822
550007, 30.0000, 784.8822
550008, 35.0000, 784.8822
550009, 40.0000, 784.8822
550010, 45.0000, 784.8822
550011, 50.0000, 784.8822
560001, 0.0000, 788.1776
560002, 5.0000, 788.1776
560003, 10.0000, 788.1776
560004, 15.0000, 788.1776
560005, 20.0000, 788.1776
560006, 25.0000, 788.1776
560007, 30.0000, 788.1776
560008, 35.0000, 788.1776
560009, 40.0000, 788.1776
560010, 45.0000, 788.1776
560011, 50.0000, 788.1776
570001, 0.0000, 791.3311
570002, 5.0000, 791.3311
570003, 10.0000, 791.3311
570004, 15.0000, 791.3311
570005, 20.0000, 791.3311
570006, 25.0000, 791.3311
570007, 30.0000, 791.3311
570008, 35.0000, 791.3311
570009, 40.0000, 791.3311
570010, 45.0000, 791.3311
570011, 50.0000, 791.3311
580001, 0.0000, 794.3488
580002, 5.0000, 794.3488
580003, 10.0000, 794.3488
580004, 15.0000, 794.3488
580005, 20.0000, 794.3488
580006, 25.0000, 794.3488
580007, 30.0000, 794.3488
580008, 35.0000, 794.3488
580009, 40.0000, 794.3488
580010, 45.0000, 794.3488
580011, 50.0000, 794.3488
590001, 0.0000, 797.2366
590002, 5.0000, 797.2366
590003, 10.0000, 797.2366
590004, 15.0000, 797.2366
590005, 20.0000, 797.2366
590006, 25.0000, 797.2366
590007, 30.0000, 797.2366
590008, 35.0000, 797.2366
590009, 40.0000, 797.2366
590010, 45.0000, 797.2366
590011, 50.0000, 797.2366
600001, 0.0000, 800.0000
600002, 5.0000, 800.0000
600003, 10.0000, 800.0000
600004, 15.0000, 800.0000
600005, 20.0000, 800.0000
600006, 25.0000, 800.0000
600007, 30.0000, 800.0000
600008, 35.0000, 800.0000
600009, 40.0000, 800.0000
600010, 45.0000, 800.0000
600011, 50.0000, 800.0000
5000000, 50.0000, 0.0000
5000001, 50.0577, 0.0000
5000002, 50.1258, 0.0000
5000003, 50.2061, 0.0000
5000004, 50.3009, 0.0000
5000005, 50.4128, 0.0000
5000006, 50.5448, 0.0000
5000007, 50.7006, 0.0000
5000008, 50.8844, 0.0000
5000009, 51.1013, 0.0000
5000010, 51.3572, 0.0000
5000011, 51.6593, 0.0000
5000012, 52.0156, 0.0000
5000013, 52.4361, 0.0000
5000014, 52.9323, 0.0000
5000015, 53.5179, 0.0000
5000016, 54.2088, 0.0000
5000017, 55.0241, 0.0000
5000018, 55.9861, 0.0000
5000019, 57.1213, 0.0000
5000020, 58.4609, 0.0000
5000021, 60.0415, 0.0000
5000022, 61.9067, 0.0000
5000023, 64.1076, 0.0000
5000024, 66.7047, 0.0000
5000025, 69.7692, 0.0000
5000026, 73.3854, 0.0000
5000027, 77.6525, 0.0000
5000028, 82.6876, 0.0000
5000029, 88.6291, 0.0000
5000030, 95.6400, 0.0000
5000031, 103.9129, 0.0000
5000032, 113.6750, 0.0000
5000033, 125.1942, 0.0000
5000034, 138.7868, 0.0000
5000035, 154.8261, 0.0000
5000036, 173.7525, 0.0000
5000037, 196.0857, 0.0000
5000038, 222.4388, 0.0000
5000039, 253.5355, 0.0000
5000040, 290.2296, 0.0000
5000041, 333.5287, 0.0000
5000042, 384.6215, 0.0000
5000043, 444.9111, 0.0000
5000044, 516.0528, 0.0000
5000045, 600.0000, 0.0000
5010000, 50.0000, 37.0942
5010001, 50.0577, 37.0942
5010002, 50.1258, 37.0942
5010003, 50.2061, 37.0942
5010004, 50.3009, 37.0942
5010005, 50.4128, 37.0942
5010006, 50.5448, 37.0942
5010007, 50.7006, 37.0942
5010008, 50.8844, 37.0942
5010009, 51.1013, 37.0942
5010010, 51.3572, 37.0942
5010011, 51.6593, 37.0942
5010012, 52.0156, 37.0942
5010013, 52.4361, 37.0942
5010014, 52.9323, 37.0942
5010015, 53.5179, 37.0942
5010016, 54.2088, 37.0942
5010017, 55.0241, 37.0942
5010018, 55.9861, 37.0942
5010019, 57.1213, 37.0942
5010020, 58.4609, 37.0942
5010021, 60.0415, 37.0942
5010022, 61.9067, 37.0942
5010023, 64.1076, 37.0942
5010024, 66.7047, 37.0942
5010025, 69.7692, 37.0942
5010026, 73.3854, 37.0942
5010027, 77.6525, 37.0942
5010028, 82.6876, 37.0942
5010029, 88.6291, 37.0942
5010030, 95.6400, 37.0942
5010031, 103.9129, 37.0942
5010032, 113.6750, 37.0942
5010033, 125.1942, 37.0942
5010034, 138.7868, 37.0942
5010035, 154.8261, 37.0942
5010036, 173.7525, 37.0942
5010037, 196.0857, 37.0942
5010038, 222.4388, 37.0942
5010039, 253.5355, 37.0942
5010040, 290.2296, 37.0942
5010041, 333.5287, 37.0942
5010042, 384.6215, 37.0942
5010043, 444.9111, 37.0942
5010044, 516.0528, 37.0942
5010045, 600.0000, 37.0942
5020000, 50.0000, 72.5910
5020001, 50.0577, 72.5910
5020002, 50.1258, 72.5910
5020003, 50.2061, 72.5910
5020004, 50.3009, 72.5910
5020005, 50.4128, 72.5910
5020006, 50.5448, 72.5910
5020007, 50.7006, 72.5910
5020008, 50.8844, 72.5910
5020009, 51.1013, 72.5910
5020010, 51.3572, 72.5910
5020011, 51.6593, 72.5910
5020012, 52.0156, 72.5910
5020013, 52.4361, 72.5910
5020014, 52.9323, 72.5910
5020015, 53.5179, 72.5910
5020016, 54.2088, 72.5910
5020017, 55.0241, 72.5910
5020018, 55.9861, 72.5910
5020019, 57.1213, 72.5910
5020020, 58.4609, 72.5910
5020021, 60.0415, 72.5910
5020022, 61.9067, 72.5910
5020023, 64.1076, 72.5910
5020024, 66.7047, 72.5910
5020025, 69.7692, 72.5910
5020026, 73.3854, 72.5910
5020027, 77.6525, 72.5910
5020028, 82.6876, 72.5910
5020029, 88.6291, 72.5910
5020030, 95.6400, 72.5910
5020031, 103.9129, 72.5910
5020032, 113.6750, 72.5910
5020033, 125.1942, 72.5910
5020034, 138.7868, 72.5910
5020035, 154.8261, 72.5910
5020036, 173.7525, 72.5910
5020037, 196.0857, 72.5910
5020038, 222.4388, 72.5910
5020039, 253.5355, 72.5910
5020040, 290.2296, 72.5910
5020041, 333.5287, 72.5910
5020042, 384.6215, 72.5910
5020043, 444.9111, 72.5910
5020044, 516.0528, 72.5910
5020045, 600.0000, 72.5910
5030000, 50.0000, 106.5592
5030001, 50.0577, 106.5592
5030002, 50.1258, 106.5592
5030003, 50.2061, 106.5592
5030004, 50.3009, 106.5592
5030005, 50.4128, 106.5592
5030006, 50.5448, 106.5592
5030007, 50.7006, 106.5592
5030008, 50.8844, 106.5592
5030009, 51.1013, 106.5592
5030010, 51.3572, 106.5592
5030011, 51.6593, 106.5592
5030012, 52.0156, 106.5592
5030013, 52.4361, 106.5592
5030014, 52.9323, 106.5592
5030015, 53.5179, 106.5592
5030016, 54.2088, 106.5592
5030017, 55.0241, 106.5592
5030018, 55.9861, 106.5592
5030019, 57.1213, 106.5592
5030020, 58.4609, 106.5592
5030021, 60.0415, 106.5592
5030022, 61.9067, 106.5592
5030023, 64.1076, 106.5592
5030024, 66.7047, 106.5592
5030025, 69.7692, 106.5592
5030026, 73.3854, 106.5592
5030027, 77.6525, 106.5592
5030028, 82.6876, 106.5592
5030029, 88.6291, 106.5592
5030030, 95.6400, 106.5592
5030031, 103.9129, 106.5592
5030032, 113.6750, 106.5592
5030033, 125.1942, 106.5592
5030034, 138.7868, 106.5592
5030035, 154.8261, 106.5592
5030036, 173.7525, 106.5592
5030037, 196.0857, 106.5592
5030038, 222.4388, 106.5592
5030039, 253.5355, 106.5592
5030040, 290.2296, 106.5592
5030041, 333.5287, 106.5592
5030042, 384.6215, 106.5592
5030043, 444.9111, 106.5592
5030044, 516.0528, 106.5592
5030045, 600.0000, 106.5592
5040000, 50.0000, 139.0647
5040001, 50.0577, 139.0647
5040002, 50.1258, 139.0647
5040003, 50.2061, 139.0647
5040004, 50.3009, 139.0647
5040005, 50.4128, 139.0647
5040006, 50.5448, 139.0647
5040007, 50.7006, 139.0647
5040008, 50.8844, 139.0647
5040009, 51.1013, 139.0647
5040010, 51.3572, 139.0647
5040011, 51.6593, 139.0647
5040012, 52.0156, 139.0647
5040013, 52.4361, 139.0647
5040014, 52.9323, 139.0647
5040015, 53.5179, 139.0647
5040016, 54.2088, 139.0647
5040017, 55.0241, 139.0647
5040018, 55.9861, 139.0647
5040019, 57.1213, 139.0647
5040020, 58.4609, 139.0647
5040021, 60.0415, 139.0647
5040022, 61.9067, 139.0647
5040023, 64.1076, 139.0647
5040024, 66.7047, 139.0647
5040025, 69.7692, 139.0647
5040026, 73.3854, 139.0647
5040027, 77.6525, 139.0647
5040028, 82.6876, 139.0647
5040029, 88.6291, 139.0647
5040030, 95.6400, 139.0647
5040031, 103.9129, 139.0647
5040032, 113.6750, 139.0647
5040033, 125.1942, 139.0647
5040034, 138.7868, 139.0647
5040035, 154.8261, 139.0647
5040036, 173.7525, 139.0647
5040037, 196.0857, 139.0647
5040038, 222.4388, 139.0647
5040039, 253.5355, 139.0647
5040040, 290.2296, 139.0647
5040041, 333.5287, 139.0647
5040042, 384.6215, 139.0647
5040043, 444.9111, 139.0647
5040044, 516.0528, 139.0647
5040045, 600.0000, 139.0647
5050000, 50.0000, 170.1704
5050001, 50.0577, 170.1704
5050002, 50.1258, 170.1704
5050003, 50.2061, 170.1704
5050004, 50.3009, 170.1704
5050005, 50.4128, 170.1704
5050006, 50.5448, 170.1704
5050007, 50.7006, 170.1704
5050008, 50.8844, 170.1704
5050009, 51.1013, 170.1704
5050010, 51.3572, 170.1704
5050011, 51.6593, 170.1704
5050012, 52.0156, 170.1704
5050013, 52.4361, 170.1704
5050014, 52.9323, 170.1704
5050015, 53.5179, 170.1704
5050016, 54.2088, 170.1704
5050017, 55.0241, 170.1704
5050018, 55.9861, 170.1704
5050019, 57.1213, 170.1704
5050020, 58.4609, 170.1704
5050021, 60.0415, 170.1704
5050022, 61.9067, 170.1704
5050023, 64.1076, 170.1704
5050024, 66.7047, 170.1704
5050025, 69.7692, 170.1704
5050026, 73.3854, 170.1704
5050027, 77.6525, 170.1704
5050028, 82.6876, 170.1704
5050029, 88.6291, 170.1704
5050030, 95.6400, 170.1704
5050031, 103.9129, 170.1704
5050032, 113.6750, 170.1704
5050033, 125.1942, 170.1704
5050034, 138.7868, 170.1704
5050035, 154.8261, 170.1704
5050036, 173.7525, 170.1704
5050037, 196.0857, 170.1704
5050038, 222.4388, 170.1704
5050039, 253.5355, 170.1704
5050040, 290.2296, 170.1704
5050041, 333.5287, 170.1704
5050042, 384.6215, 170.1704
5050043, 444.9111, 170.1704
5050044, 516.0528, 170.1704
5050045, 600.0000, 170.1704
5060000, 50.0000, 199.9367
5060001, 50.0577, 199.9367
5060002, 50.1258, 199.9367
5060003, 50.2061, 199.9367
5060004, 50.3009, 199.9367
5060005, 50.4128, 199.9367
5060006, 50.5448, 199.9367
5060007, 50.7006, 199.9367
5060008, 50.8844, 199.9367
5060009, 51.1013, 199.9367
5060010, 51.3572, 199.9367
5060011, 51.6593, 199.9367
5060012, 52.0156, 199.9367
5060013, 52.4361, 199.9367
5060014, 52.9323, 199.9367
5060015, 53.5179, 199.9367
5060016, 54.2088, 199.9367
5060017, 55.0241, 199.9367
5060018, 55.9861, 199.9367
5060019, 57.1213, 199.9367
5060020, 58.4609, 199.9367
5060021, 60.0415, 199.9367
5060022, 61.9067, 199.9367
5060023, 64.1076, 199.9367
5060024, 66.7047, 199.9367
5060025, 69.7692, 199.9367
5060026, 73.3854, 199.9367
5060027, 77.6525, 199.9367
5060028, 82.6876, 199.9367
5060029, 88.6291, 199.9367
5060030, 95.6400, 199.9367
5060031, 103.9129, 199.9367
5060032, 113.6750, 199.9367
5060033, 125.1942, 199.9367
5060034, 138.7868, 199.9367
5060035, 154.8261, 199.9367
5060036, 173.7525, 199.9367
5060037, 196.0857, 199.9367
5060038, 222.4388, 199.9367
5060039, 253.5355, 199.9367
5060040, 290.2296, 199.9367
5060041, 333.5287, 199.9367
5060042, 384.6215, 199.9367
5060043, 444.9111, 199.9367
5060044, 516.0528, 199.9367
5060045, 600.0000, 199.9367
5070000, 50.0000, 228.4212
5070001, 50.0577, 228.4212
5070002, 50.1258, 228.4212
5070003, 50.2061, 228.4212
5070004, 50.3009, 228.4212
5070005, 50.4128, 228.4212
5070006, 50.5448, 228.4212
5070007, 50.7006, 228.4212
5070008, 50.8844, 228.4212
5070009, 51.1013, 228.4212
5070010, 51.3572, 228.4212
5070011, 51.6593, 228.4212
5070012, 52.0156, 228.4212
5070013, 52.4361, 228.4212
5070014, 52.9323, 228.4212
5070015, 53.5179, 228.4212
5070016, 54.2088, 228.4212
5070017, 55.0241, 228.4212
5070018, 55.9861, 228.4212
5070019, 57.1213, 228.4212
5070020, 58.4609, 228.4212
5070021, 60.0415, 228.4212
5070022, 61.9067, 228.4212
5070023, 64.1076, 228.4212
5070024, 66.7047, 228.4212
5070025, 69.7692, 228.4212
5070026, 73.3854, 228.4212
5070027, 77.6525, 228.4212
5070028, 82.6876, 228.4212
5070029, 88.6291, 228.4212
5070030, 95.6400, 228.4212
5070031, 103.9129, 228.4212
5070032, 113.6750, 228.4212
5070033, 125.1942, 228.4212
5070034, 138.7868, 228.4212
5070035, 154.8261, 228.4212
5070036, 173.7525, 228.4212
5070037, 196.0857, 228.4212
5070038, 222.4388, 228.4212
5070039, 253.5355, 228.4212
5070040, 290.2296, 228.4212
5070041, 333.5287, 228.4212
5070042, 384.6215, 228.4212
5070043, 444.9111, 228.4212
5070044, 516.0528, 228.4212
5070045, 600.0000, 228.4212
5080000, 50.0000, 255.6790
5080001, 50.0577, 255.6790
5080002, 50.1258, 255.6790
5080003, 50.2061, 255.6790
5080004, 50.3009, 255.6790
5080005, 50.4128, 255.6790
5080006, 50.5448, 255.6790
5080007, 50.7006, 255.6790
5080008, 50.8844, 255.6790
5080009, 51.1013, 255.6790
5080010, 51.3572, 255.6790
5080011, 51.6593, 255.6790
5080012, 52.0156, 255.6790
5080013, 52.4361, 255.6790
5080014, 52.9323, 255.6790
5080015, 53.5179, 255.6790
5080016, 54.2088, 255.6790
5080017, 55.0241, 255.6790
5080018, 55.9861, 255.6790
5080019, 57.1213, 255.6790
5080020, 58.4609, 255.6790
5080021, 60.0415, 255.6790
5080022, 61.9067, 255.6790
5080023, 64.1076, 255.6790
5080024, 66.7047, 255.6790
5080025, 69.7692, 255.6790
5080026, 73.3854, 255.6790
5080027, 77.6525, 255.6790
5080028, 82.6876, 255.6790
5080029, 88.6291, 255.6790
5080030, 95.6400, 255.6790
5080031, 103.9129, 255.6790
5080032, 113.6750, 255.6790
5080033, 125.1942, 255.6790
5080034, 138.7868, 255.6790
5080035, 154.8261, 255.6790
5080036, 173.7525, 255.6790
5080037, 196.0857, 255.6790
5080038, 222.4388, 255.6790
5080039, 253.5355, 255.6790
5080040, 290.2296, 255.6790
5080041, 333.5287, 255.6790
5080042, 384.6215, 255.6790
5080043, 444.9111, 255.6790
5080044, 516.0528, 255.6790
5080045, 600.0000, 255.6790
5090000, 50.0000, 281.7631
5090001, 50.0577, 281.7631
5090002, 50.1258, 281.7631
5090003, 50.2061, 281.7631
5090004, 50.3009, 281.7631
5090005, 50.4128, 281.7631
5090006, 50.5448, 281.7631
5090007, 50.7006, 281.7631
5090008, 50.8844, 281.7631
5090009, 51.1013, 281.7631
5090010, 51.3572, 281.7631
5090011, 51.6593, 281.7631
5090012, 52.0156, 281.7631
5090013, 52.4361, 281.7631
5090014, 52.9323, 281.7631
5090015, 53.5179, 281.7631
5090016, 54.2088, 281.7631
5090017, 55.0241, 281.7631
5090018, 55.9861, 281.7631
5090019, 57.1213, 281.7631
5090020, 58.4609, 281.7631
5090021, 60.0415, 281.7631
5090022, 61.9067, 281.7631
5090023, 64.1076, 281.7631
5090024, 66.7047, 281.7631
5090025, 69.7692, 281.7631
5090026, 73.3854, 281.7631
5090027, 77.6525, 281.7631
5090028, 82.6876, 281.7631
5090029, 88.6291, 281.7631
5090030, 95.6400, 281.7631
5090031, 103.9129, 281.7631
5090032, 113.6750, 281.7631
5090033, 125.1942, 281.7631
5090034, 138.7868, 281.7631
5090035, 154.8261, 281.7631
5090036, 173.7525, 281.7631
5090037, 196.0857, 281.7631
5090038, 222.4388, 281.7631
5090039, 253.5355, 281.7631
5090040, 290.2296, 281.7631
5090041, 333.5287, 281.7631
5090042, 384.6215, 281.7631
5090043, 444.9111, 281.7631
5090044, 516.0528, 281.7631
5090045, 600.0000, 281.7631
5100000, 50.0000, 306.7239
5100001, 50.0577, 306.7239
5100002, 50.1258, 306.7239
5100003, 50.2061, 306.7239
5100004, 50.3009, 306.7239
5100005, 50.4128, 306.7239
5100006, 50.5448, 306.7239
5100007, 50.7006, 306.7239
5100008, 50.8844, 306.7239
5100009, 51.1013, 306.7239
5100010, 51.3572, 306.7239
5100011, 51.6593, 306.7239
5100012, 52.0156, 306.7239
5100013, 52.4361, 306.7239
5100014, 52.9323, 306.7239
5100015, 53.5179, 306.7239
5100016, 54.2088, 306.7239
5100017, 55.0241, 306.7239
5100018, 55.9861, 306.7239
5100019, 57.1213, 306.7239
5100020, 58.4609, 306.7239
5100021, 60.0415, 306.7239
5100022, 61.9067, 306.7239
5100023, 64.1076, 306.7239
5100024, 66.7047, 306.7239
5100025, 69.7692, 306.7239
5100026, 73.3854, 306.7239
5100027, 77.6525, 306.7239
5100028, 82.6876, 306.7239
5100029, 88.6291, 306.7239
5100030, 95.6400, 306.7239
5100031, 103.9129, 306.7239
5100032, 113.6750, 306.7239
5100033, 125.1942, 306.7239
5100034, 138.7868, 306.7239
5100035, 154.8261, 306.7239
5100036, 173.7525, 306.7239
5100037, 196.0857, 306.7239
5100038, 222.4388, 306.7239
5100039, 253.5355, 306.7239
5100040, 290.2296, 306.7239
5100041, 333.5287, 306.7239
5100042, 384.6215, 306.7239
5100043, 444.9111, 306.7239
5100044, 516.0528, 306.7239
5100045, 600.0000, 306.7239
5110000, 50.0000, 330.6099
5110001, 50.0577, 330.6099
5110002, 50.1258, 330.6099
5110003, 50.2061, 330.6099
5110004, 50.3009, 330.6099
5110005, 50.4128, 330.6099
5110006, 50.5448, 330.6099
5110007, 50.7006, 330.6099
5110008, 50.8844, 330.6099
5110009, 51.1013, 330.6099
5110010, 51.3572, 330.6099
5110011, 51.6593, 330.6099
5110012, 52.0156, 330.6099
5110013, 52.4361, 330.6099
5110014, 52.9323, 330.6099
5110015, 53.5179, 330.6099
5110016, 54.2088, 330.6099
5110017, 55.0241, 330.6099
5110018, 55.9861, 330.6099
5110019, 57.1213, 330.6099
5110020, 58.4609, 330.6099
5110021, 60.0415, 330.6099
5110022, 61.9067, 330.6099
5110023, 64.1076, 330.6099
5110024, 66.7047, 330.6099
5110025, 69.7692, 330.6099
5110026, 73.3854, 330.6099
5110027, 77.6525, 330.6099
5110028, 82.6876, 330.6099
5110029, 88.6291, 330.6099
5110030, 95.6400, 330.6099
5110031, 103.9129, 330.6099
5110032, 113.6750, 330.6099
5110033, 125.1942, 330.6099
5110034, 138.7868, 330.6099
5110035, 154.8261, 330.6099
5110036, 173.7525, 330.6099
5110037, 196.0857, 330.6099
5110038, 222.4388, 330.6099
5110039, 253.5355, 330.6099
5110040, 290.2296, 330.6099
5110041, 333.5287, 330.6099
5110042, 384.6215, 330.6099
5110043, 444.9111, 330.6099
5110044, 516.0528, 330.6099
5110045, 600.0000, 330.6099
5120000, 50.0000, 353.4672
5120001, 50.0577, 353.4672
5120002, 50.1258, 353.4672
5120003, 50.2061, 353.4672
5120004, 50.3009, 353.4672
5120005, 50.4128, 353.4672
5120006, 50.5448, 353.4672
5120007, 50.7006, 353.4672
5120008, 50.8844, 353.4672
5120009, 51.1013, 353.4672
5120010, 51.3572, 353.4672
5120011, 51.6593, 353.4672
5120012, 52.0156, 353.4672
5120013, 52.4361, 353.4672
5120014, 52.9323, 353.4672
5120015, 53.5179, 353.4672
5120016, 54.2088, 353.4672
5120017, 55.0241, 353.4672
5120018, 55.9861, 353.4672
5120019, 57.1213, 353.4672
5120020, 58.4609, 353.4672
5120021, 60.0415, 353.4672
5120022, 61.9067, 353.4672
5120023, 64.1076, 353.4672
5120024, 66.7047, 353.4672
5120025, 69.7692, 353.4672
5120026, 73.3854, 353.4672
5120027, 77.6525, 353.4672
5120028, 82.6876, 353.4672
5120029, 88.6291, 353.4672
5120030, 95.6400, 353.4672
5120031, 103.9129, 353.4672
5120032, 113.6750, 353.4672
5120033, 125.1942, 353.4672
5120034, 138.7868, 353.4672
5120035, 154.8261, 353.4672
5120036, 173.7525, 353.4672
5120037, 196.0857, 353.4672
5120038, 222.4388, 353.4672
5120039, 253.5355, 353.4672
5120040, 290.2296, 353.4672
5120041, 333.5287, 353.4672
5120042, 384.6215, 353.4672
5120043, 444.9111, 353.4672
5120044, 516.0528, 353.4672
5120045, 600.0000, 353.4672
5130000, 50.0000, 375.3403
5130001, 50.0577, 375.3403
5130002, 50.1258, 375.3403
5130003, 50.2061, 375.3403
5130004, 50.3009, 375.3403
5130005, 50.4128, 375.3403
5130006, 50.5448, 375.3403
5130007, 50.7006, 375.3403
5130008, 50.8844, 375.3403
5130009, 51.1013, 375.3403
5130010, 51.3572, 375.3403
5130011, 51.6593, 375.3403
5130012, 52.0156, 375.3403
5130013, 52.4361, 375.3403
5130014, 52.9323, 375.3403
5130015, 53.5179, 375.3403
5130016, 54.2088, 375.3403
5130017, 55.0241, 375.3403
5130018, 55.9861, 375.3403
5130019, 57.1213, 375.3403
5130020, 58.4609, 375.3403
5130021, 60.0415, 375.3403
5130022, 61.9067, 375.3403
5130023, 64.1076, 375.3403
5130024, 66.7047, 375.3403
5130025, 69.7692, 375.3403
5130026, 73.3854, 375.3403
5130027, 77.6525, 375.3403
5130028, 82.6876, 375.3403
5130029, 88.6291, 375.3403
5130030, 95.6400, 375.3403
5130031, 103.9129, 375.3403
5130032, 113.6750, 375.3403
5130033, 125.1942, 375.3403
5130034, 138.7868, 375.3403
5130035, 154.8261, 375.3403
5130036, 173.7525, 375.3403
5130037, 196.0857, 375.3403
5130038, 222.4388, 375.3403
5130039, 253.5355, 375.3403
5130040, 290.2296, 375.3403
5130041, 333.5287, 375.3403
5130042, 384.6215, 375.3403
5130043, 444.9111, 375.3403
5130044, 516.0528, 375.3403
5130045, 600.0000, 375.3403
5140000, 50.0000, 396.2715
5140001, 50.0577, 396.2715
5140002, 50.1258, 396.2715
5140003, 50.2061, 396.2715
5140004, 50.3009, 396.2715
5140005, 50.4128, 396.2715
5140006, 50.5448, 396.2715
5140007, 50.7006, 396.2715
5140008, 50.8844, 396.2715
5140009, 51.1013, 396.2715
5140010, 51.3572, 396.2715
5140011, 51.6593, 396.2715
5140012, 52.0156, 396.2715
5140013, 52.4361, 396.2715
5140014, 52.9323, 396.2715
5140015, 53.5179, 396.2715
5140016, 54.2088, 396.2715
5140017, 55.0241, 396.2715
5140018, 55.9861, 396.2715
5140019, 57.1213, 396.2715
5140020, 58.4609, 396.2715
5140021, 60.0415, 396.2715
5140022, 61.9067, 396.2715
5140023, 64.1076, 396.2715
5140024, 66.7047, 396.2715
5140025, 69.7692, 396.2715
5140026, 73.3854, 396.2715
5140027, 77.6525, 396.2715
5140028, 82.6876, 396.2715
5140029, 88.6291, 396.2715
5140030, 95.6400, 396.2715
5140031, 103.9129, 396.2715
5140032, 113.6750, 396.2715
5140033, 125.1942, 396.2715
5140034, 138.7868, 396.2715
5140035, 154.8261, 396.2715
5140036, 173.7525, 396.2715
5140037, 196.0857, 396.2715
5140038, 222.4388, 396.2715
5140039, 253.5355, 396.2715
5140040, 290.2296, 396.2715
5140041, 333.5287, 396.2715
5140042, 384.6215, 396.2715
5140043, 444.9111, 396.2715
5140044, 516.0528, 396.2715
5140045, 600.0000, 396.2715
5150000, 50.0000, 416.3014
5150001, 50.0577, 416.3014
5150002, 50.1258, 416.3014
5150003, 50.2061, 416.3014
5150004, 50.3009, 416.3014
5150005, 50.4128, 416.3014
5150006, 50.5448, 416.3014
5150007, 50.7006, 416.3014
5150008, 50.8844, 416.3014
5150009, 51.1013, 416.3014
5150010, 51.3572, 416.3014
5150011, 51.6593, 416.3014
5150012, 52.0156, 416.3014
5150013, 52.4361, 416.3014
5150014, 52.9323, 416.3014
5150015, 53.5179, 416.3014
5150016, 54.2088, 416.3014
5150017, 55.0241, 416.3014
5150018, 55.9861, 416.3014
5150019, 57.1213, 416.3014
5150020, 58.4609, 416.3014
5150021, 60.0415, 416.3014
5150022, 61.9067, 416.3014
5150023, 64.1076, 416.3014
5150024, 66.7047, 416.3014
5150025, 69.7692, 416.3014
5150026, 73.3854, 416.3014
5150027, 77.6525, 416.3014
5150028, 82.6876, 416.3014
5150029, 88.6291, 416.3014
5150030, 95.6400, 416.3014
5150031, 103.9129, 416.3014
5150032, 113.6750, 416.3014
5150033, 125.1942, 416.3014
5150034, 138.7868, 416.3014
5150035, 154.8261, 416.3014
5150036, 173.7525, 416.3014
5150037, 196.0857, 416.3014
5150038, 222.4388, 416.3014
5150039, 253.5355, 416.3014
5150040, 290.2296, 416.3014
5150041, 333.5287, 416.3014
5150042, 384.6215, 416.3014
5150043, 444.9111, 416.3014
5150044, 516.0528, 416.3014
5150045, 600.0000, 416.3014
5160000, 50.0000, 435.4687
5160001, 50.0577, 435.4687
5160002, 50.1258, 435.4687
5160003, 50.2061, 435.4687
5160004, 50.3009, 435.4687
5160005, 50.4128, 435.4687
5160006, 50.5448, 435.4687
5160007, 50.7006, 435.4687
5160008, 50.8844, 435.4687
5160009, 51.1013, 435.4687
5160010, 51.3572, 435.4687
5160011, 51.6593, 435.4687
5160012, 52.0156, 435.4687
5160013, 52.4361, 435.4687
5160014, 52.9323, 435.4687
5160015, 53.5179, 435.4687
5160016, 54.2088, 435.4687
5160017, 55.0241, 435.4687
5160018, 55.9861, 435.4687
5160019, 57.1213, 435.4687
5160020, 58.4609, 435.4687
5160021, 60.0415, 435.4687
5160022, 61.9067, 435.4687
5160023, 64.1076, 435.4687
5160024, 66.7047, 435.4687
5160025, 69.7692, 435.4687
5160026, 73.3854, 435.4687
5160027, 77.6525, 435.4687
5160028, 82.6876, 435.4687
5160029, 88.6291, 435.4687
5160030, 95.6400, 435.4687
5160031, 103.9129, 435.4687
5160032, 113.6750, 435.4687
5160033, 125.1942, 435.4687
5160034, 138.7868, 435.4687
5160035, 154.8261, 435.4687
5160036, 173.7525, 435.4687
5160037, 196.0857, 435.4687
5160038, 222.4388, 435.4687
5160039, 253.5355, 435.4687
5160040, 290.2296, 435.4687
5160041, 333.5287, 435.4687
5160042, 384.6215, 435.4687
5160043, 444.9111, 435.4687
5160044, 516.0528, 435.4687
5160045, 600.0000, 435.4687
5170000, 50.0000, 453.8106
5170001, 50.0577, 453.8106
5170002, 50.1258, 453.8106
5170003, 50.2061, 453.8106
5170004, 50.3009, 453.8106
5170005, 50.4128, 453.8106
5170006, 50.5448, 453.8106
5170007, 50.7006, 453.8106
5170008, 50.8844, 453.8106
5170009, 51.1013, 453.8106
5170010, 51.3572, 453.8106
5170011, 51.6593, 453.8106
5170012, 52.0156, 453.8106
5170013, 52.4361, 453.8106
5170014, 52.9323, 453.8106
5170015, 53.5179, 453.8106
5170016, 54.2088, 453.8106
5170017, 55.0241, 453.8106
5170018, 55.9861, 453.8106
5170019, 57.1213, 453.8106
5170020, 58.4609, 453.8106
5170021, 60.0415, 453.8106
5170022, 61.9067, 453.8106
5170023, 64.1076, 453.8106
5170024, 66.7047, 453.8106
5170025, 69.7692, 453.8106
5170026, 73.3854, 453.8106
5170027, 77.6525, 453.8106
5170028, 82.6876, 453.8106
5170029, 88.6291, 453.8106
5170030, 95.6400, 453.8106
5170031, 103.9129, 453.8106
5170032, 113.6750, 453.8106
5170033, 125.1942, 453.8106
5170034, 138.7868, 453.8106
5170035, 154.8261, 453.8106
5170036, 173.7525, 453.8106
5170037, 196.0857, 453.8106
5170038, 222.4388, 453.8106
5170039, 253.5355, 453.8106
5170040, 290.2296, 453.8106
5170041, 333.5287, 453.8106
5170042, 384.6215, 453.8106
5170043, 444.9111, 453.8106
5170044, 516.0528, 453.8106
5170045, 600.0000, 453.8106
5180000, 50.0000, 471.3627
5180001, 50.0577, 471.3627
5180002, 50.1258, 471.3627
5180003, 50.2061, 471.3627
5180004, 50.3009, 471.3627
5180005, 50.4128, 471.3627
5180006, 50.5448, 471.3627
5180007, 50.7006, 471.3627
5180008, 50.8844, 471.3627
5180009, 51.1013, 471.3627
5180010, 51.3572, 471.3627
5180011, 51.6593, 471.3627
5180012, 52.0156, 471.3627
5180013, 52.4361, 471.3627
5180014, 52.9323, 471.3627
5180015, 53.5179, 471.3627
5180016, 54.2088, 471.3627
5180017, 55.0241, 471.3627
5180018, 55.9861, 471.3627
5180019, 57.1213, 471.3627
5180020, 58.4609, 471.3627
5180021, 60.0415, 471.3627
5180022, 61.9067, 471.3627
5180023, 64.1076, 471.3627
5180024, 66.7047, 471.3627
5180025, 69.7692, 471.3627
5180026, 73.3854, 471.3627
5180027, 77.6525, 471.3627
5180028, 82.6876, 471.3627
5180029, 88.6291, 471.3627
5180030, 95.6400, 471.3627
5180031, 103.9129, 471.3627
5180032, 113.6750, 471.3627
5180033, 125.1942, 471.3627
5180034, 138.7868, 471.3627
5180035, 154.8261, 471.3627
5180036, 173.7525, 471.3627
5180037, 196.0857, 471.3627
5180038, 222.4388, 471.3627
5180039, 253.5355, 471.3627
5180040, 290.2296, 471.3627
5180041, 333.5287, 471.3627
5180042, 384.6215, 471.3627
5180043, 444.9111, 471.3627
5180044, 516.0528, 471.3627
5180045, 600.0000, 471.3627
5190000, 50.0000, 488.1589
5190001, 50.0577, 488.1589
5190002, 50.1258, 488.1589
5190003, 50.2061, 488.1589
5190004, 50.3009, 488.1589
5190005, 50.4128, 488.1589
5190006, 50.5448, 488.1589
5190007, 50.7006, 488.1589
5190008, 50.8844, 488.1589
5190009, 51.1013, 488.1589
5190010, 51.3572, 488.1589
5190011, 51.6593, 488.1589
5190012, 52.0156, 488.1589
5190013, 52.4361, 488.1589
5190014, 52.9323, 488.1589
5190015, 53.5179, 488.1589
5190016, 54.2088, 488.1589
5190017, 55.0241, 488.1589
5190018, 55.9861, 488.1589
5190019, 57.1213, 488.1589
5190020, 58.4609, 488.1589
5190021, 60.0415, 488.1589
5190022, 61.9067, 488.1589
5190023, 64.1076, 488.1589
5190024, 66.7047, 488.1589
5190025, 69.7692, 488.1589
5190026, 73.3854, 488.1589
5190027, 77.6525, 488.1589
5190028, 82.6876, 488.1589
5190029, 88.6291, 488.1589
5190030, 95.6400, 488.1589
5190031, 103.9129, 488.1589
5190032, 113.6750, 488.1589
5190033, 125.1942, 488.1589
5190034, 138.7868, 488.1589
5190035, 154.8261, 488.1589
5190036, 173.7525, 488.1589
5190037, 196.0857, 488.1589
5190038, 222.4388, 488.1589
5190039, 253.5355, 488.1589
5190040, 290.2296, 488.1589
5190041, 333.5287, 488.1589
5190042, 384.6215, 488.1589
5190043, 444.9111, 488.1589
5190044, 516.0528, 488.1589
5190045, 600.0000, 488.1589
5200000, 50.0000, 504.2319
5200001, 50.0577, 504.2319
5200002, 50.1258, 504.2319
5200003, 50.2061, 504.2319
5200004, 50.3009, 504.2319
5200005, 50.4128, 504.2319
5200006, 50.5448, 504.2319
5200007, 50.7006, 504.2319
5200008, 50.8844, 504.2319
5200009, 51.1013, 504.2319
5200010, 51.3572, 504.2319
5200011, 51.6593, 504.2319
5200012, 52.0156, 504.2319
5200013, 52.4361, 504.2319
5200014, 52.9323, 504.2319
5200015, 53.5179, 504.2319
5200016, 54.2088, 504.2319
5200017, 55.0241, 504.2319
5200018, 55.9861, 504.2319
5200019, 57.1213, 504.2319
5200020, 58.4609, 504.2319
5200021, 60.0415, 504.2319
5200022, 61.9067, 504.2319
5200023, 64.1076, 504.2319
5200024, 66.7047, 504.2319
5200025, 69.7692, 504.2319
5200026, 73.3854, 504.2319
5200027, 77.6525, 504.2319
5200028, 82.6876, 504.2319
5200029, 88.6291, 504.2319
5200030, 95.6400, 504.2319
5200031, 103.9129, 504.2319
5200032, 113.6750, 504.2319
5200033, 125.1942, 504.2319
5200034, 138.7868, 504.2319
5200035, 154.8261, 504.2319
5200036, 173.7525, 504.2319
5200037, 196.0857, 504.2319
5200038, 222.4388, 504.2319
5200039, 253.5355, 504.2319
5200040, 290.2296, 504.2319
5200041, 333.5287, 504.2319
5200042, 384.6215, 504.2319
5200043, 444.9111, 504.2319
5200044, 516.0528, 504.2319
5200045, 600.0000, 504.2319
5210000, 50.0000, 519.6127
5210001, 50.0577, 519.6127
5210002, 50.1258, 519.6127
5210003, 50.2061, 519.6127
5210004, 50.3009, 519.6127
5210005, 50.4128, 519.6127
5210006, 50.5448, 519.6127
5210007, 50.7006, 519.6127
5210008, 50.8844, 519.6127
5210009, 51.1013, 519.6127
5210010, 51.3572, 519.6127
5210011, 51.6593, 519.6127
5210012, 52.0156, 519.6127
5210013, 52.4361, 519.6127
5210014, 52.9323, 519.6127
5210015, 53.5179, 519.6127
5210016, 54.2088, 519.6127
5210017, 55.0241, 519.6127
5210018, 55.9861, 519.6127
5210019, 57.1213, 519.6127
5210020, 58.4609, 519.6127
5210021, 60.0415, 519.6127
5210022, 61.9067, 519.6127
5210023, 64.1076, 519.6127
5210024, 66.7047, 519.6127
5210025, 69.7692, 519.6127
5210026, 73.3854, 519.6127
5210027, 77.6525, 519.6127
5210028, 82.6876, 519.6127
5210029, 88.6291, 519.6127
5210030, 95.6400, 519.6127
5210031, 103.9129, 519.6127
5210032, 113.6750, 519.6127
5210033, 125.1942, 519.6127
5210034, 138.7868, 519.6127
5210035, 154.8261, 519.6127
5210036, 173.7525, 519.6127
5210037, 196.0857, 519.6127
5210038, 222.4388, 519.6127
5210039, 253.5355, 519.6127
5210040, 290.2296, 519.6127
5210041, 333.5287, 519.6127
5210042, 384.6215, 519.6127
5210043, 444.9111, 519.6127
5210044, 516.0528, 519.6127
5210045, 600.0000, 519.6127
5220000, 50.0000, 534.3312
5220001, 50.0577, 534.3312
5220002, 50.1258, 534.3312
5220003, 50.2061, 534.3312
5220004, 50.3009, 534.3312
5220005, 50.4128, 534.3312
5220006, 50.5448, 534.3312
5220007, 50.7006, 534.3312
5220008, 50.8844, 534.3312
5220009, 51.1013, 534.3312
5220010, 51.3572, 534.3312
5220011, 51.6593, 534.3312
5220012, 52.0156, 534.3312
5220013, 52.4361, 534.3312
5220014, 52.9323, 534.3312
5220015, 53.5179, 534.3312
5220016, 54.2088, 534.3312
5220017, 55.0241, 534.3312
5220018, 55.9861, 534.3312
5220019, 57.1213, 534.3312
5220020, 58.4609, 534.3312
5220021, 60.0415, 534.3312
5220022, 61.9067, 534.3312
5220023, 64.1076, 534.3312
5220024, 66.7047, 534.3312
5220025, 69.7692, 534.3312
5220026, 73.3854, 534.3312
5220027, 77.6525, 534.3312
5220028, 82.6876, 534.3312
5220029, 88.6291, 534.3312
5220030, 95.6400, 534.3312
5220031, 103.9129, 534.3312
5220032, 113.6750, 534.3312
5220033, 125.1942, 534.3312
5220034, 138.7868, 534.3312
5220035, 154.8261, 534.3312
5220036, 173.7525, 534.3312
5220037, 196.0857, 534.3312
5220038, 222.4388, 534.3312
5220039, 253.5355, 534.3312
5220040, 290.2296, 534.3312
5220041, 333.5287, 534.3312
5220042, 384.6215, 534.3312
5220043, 444.9111, 534.3312
5220044, 516.0528, 534.3312
5220045, 600.0000, 534.3312
5230000, 50.0000, 548.4159
5230001, 50.0577, 548.4159
5230002, 50.1258, 548.4159
5230003, 50.2061, 548.4159
5230004, 50.3009, 548.4159
5230005, 50.4128, 548.4159
5230006, 50.5448, 548.4159
5230007, 50.7006, 548.4159
5230008, 50.8844, 548.4159
5230009, 51.1013, 548.4159
5230010, 51.3572, 548.4159
5230011, 51.6593, 548.4159
5230012, 52.0156, 548.4159
5230013, 52.4361, 548.4159
5230014, 52.9323, 548.4159
5230015, 53.5179, 548.4159
5230016, 54.2088, 548.4159
5230017, 55.0241, 548.4159
5230018, 55.9861, 548.4159
5230019, 57.1213, 548.4159
5230020, 58.4609, 548.4159
5230021, 60.0415, 548.4159
5230022, 61.9067, 548.4159
5230023, 64.1076, 548.4159
5230024, 66.7047, 548.4159
5230025, 69.7692, 548.4159
5230026, 73.3854, 548.4159
5230027, 77.6525, 548.4159
5230028, 82.6876, 548.4159
5230029, 88.6291, 548.4159
5230030, 95.6400, 548.4159
5230031, 103.9129, 548.4159
5230032, 113.6750, 548.4159
5230033, 125.1942, 548.4159
5230034, 138.7868, 548.4159
5230035, 154.8261, 548.4159
5230036, 173.7525, 548.4159
5230037, 196.0857, 548.4159
5230038, 222.4388, 548.4159
5230039, 253.5355, 548.4159
5230040, 290.2296, 548.4159
5230041, 333.5287, 548.4159
5230042, 384.6215, 548.4159
5230043, 444.9111, 548.4159
5230044, 516.0528, 548.4159
5230045, 600.0000, 548.4159
5240000, 50.0000, 561.8941
5240001, 50.0577, 561.8941
5240002, 50.1258, 561.8941
5240003, 50.2061, 561.8941
5240004, 50.3009, 561.8941
5240005, 50.4128, 561.8941
5240006, 50.5448, 561.8941
5240007, 50.7006, 561.8941
5240008, 50.8844, 561.8941
5240009, 51.1013, 561.8941
5240010, 51.3572, 561.8941
5240011, 51.6593, 561.8941
5240012, 52.0156, 561.8941
5240013, 52.4361, 561.8941
5240014, 52.9323, 561.8941
5240015, 53.5179, 561.8941
5240016, 54.2088, 561.8941
5240017, 55.0241, 561.8941
5240018, 55.9861, 561.8941
5240019, 57.1213, 561.8941
5240020, 58.4609, 561.8941
5240021, 60.0415, 561.8941
5240022, 61.9067, 561.8941
5240023, 64.1076, 561.8941
5240024, 66.7047, 561.8941
5240025, 69.7692, 561.8941
5240026, 73.3854, 561.8941
5240027, 77.6525, 561.8941
5240028, 82.6876, 561.8941
5240029, 88.6291, 561.8941
5240030, 95.6400, 561.8941
5240031, 103.9129, 561.8941
5240032, 113.6750, 561.8941
5240033, 125.1942, 561.8941
5240034, 138.7868, 561.8941
5240035, 154.8261, 561.8941
5240036, 173.7525, 561.8941
5240037, 196.0857, 561.8941
5240038, 222.4388, 561.8941
5240039, 253.5355, 561.8941
5240040, 290.2296, 561.8941
5240041, 333.5287, 561.8941
5240042, 384.6215, 561.8941
5240043, 444.9111, 561.8941
5240044, 516.0528, 561.8941
5240045, 600.0000, 561.8941
5250000, 50.0000, 574.7919
5250001, 50.0577, 574.7919
5250002, 50.1258, 574.7919
5250003, 50.2061, 574.7919
5250004, 50.3009, 574.7919
5250005, 50.4128, 574.7919
5250006, 50.5448, 574.7919
5250007, 50.7006, 574.7919
5250008, 50.8844, 574.7919
5250009, 51.1013, 574.7919
5250010, 51.3572, 574.7919
5250011, 51.6593, 574.7919
5250012, 52.0156, 574.7919
5250013, 52.4361, 574.7919
5250014, 52.9323, 574.7919
5250015, 53.5179, 574.7919
5250016, 54.2088, 574.7919
5250017, 55.0241, 574.7919
5250018, 55.9861, 574.7919
5250019, 57.1213, 574.7919
5250020, 58.4609, 574.7919
5250021, 60.0415, 574.7919
5250022, 61.9067, 574.7919
5250023, 64.1076, 574.7919
5250024, 66.7047, 574.7919
5250025, 69.7692, 574.7919
5250026, 73.3854, 574.7919
5250027, 77.6525, 574.7919
5250028, 82.6876, 574.7919
5250029, 88.6291, 574.7919
5250030, 95.6400, 574.7919
5250031, 103.9129, 574.7919
5250032, 113.6750, 574.7919
5250033, 125.1942, 574.7919
5250034, 138.7868, 574.7919
5250035, 154.8261, 574.7919
5250036, 173.7525, 574.7919
5250037, 196.0857, 574.7919
5250038, 222.4388, 574.7919
5250039, 253.5355, 574.7919
5250040, 290.2296, 574.7919
5250041, 333.5287, 574.7919
5250042, 384.6215, 574.7919
5250043, 444.9111, 574.7919
5250044, 516.0528, 574.7919
5250045, 600.0000, 574.7919
5260000, 50.0000, 587.1342
5260001, 50.0577, 587.1342
5260002, 50.1258, 587.1342
5260003, 50.2061, 587.1342
5260004, 50.3009, 587.1342
5260005, 50.4128, 587.1342
5260006, 50.5448, 587.1342
5260007, 50.7006, 587.1342
5260008, 50.8844, 587.1342
5260009, 51.1013, 587.1342
5260010, 51.3572, 587.1342
5260011, 51.6593, 587.1342
5260012, 52.0156, 587.1342
5260013, 52.4361, 587.1342
5260014, 52.9323, 587.1342
5260015, 53.5179, 587.1342
5260016, 54.2088, 587.1342
5260017, 55.0241, 587.1342
5260018, 55.9861, 587.1342
5260019, 57.1213, 587.1342
5260020, 58.4609, 587.1342
5260021, 60.0415, 587.1342
5260022, 61.9067, 587.1342
5260023, 64.1076, 587.1342
5260024, 66.7047, 587.1342
5260025, 69.7692, 587.1342
5260026, 73.3854, 587.1342
5260027, 77.6525, 587.1342
5260028, 82.6876, 587.1342
5260029, 88.6291, 587.1342
5260030, 95.6400, 587.1342
5260031, 103.9129, 587.1342
5260032, 113.6750, 587.1342
5260033, 125.1942, 587.1342
5260034, 138.7868, 587.1342
5260035, 154.8261, 587.1342
5260036, 173.7525, 587.1342
5260037, 196.0857, 587.1342
5260038, 222.4388, 587.1342
5260039, 253.5355, 587.1342
5260040, 290.2296, 587.1342
5260041, 333.5287, 587.1342
5260042, 384.6215, 587.1342
5260043, 444.9111, 587.1342
5260044, 516.0528, 587.1342
5260045, 600.0000, 587.1342
5270000, 50.0000, 598.9451
5270001, 50.0577, 598.9451
5270002, 50.1258, 598.9451
5270003, 50.2061, 598.9451
5270004, 50.3009, 598.9451
5270005, 50.4128, 598.9451
5270006, 50.5448, 598.9451
5270007, 50.7006, 598.9451
5270008, 50.8844, 598.9451
5270009, 51.1013, 598.9451
5270010, 51.3572, 598.9451
5270011, 51.6593, 598.9451
5270012, 52.0156, 598.9451
5270013, 52.4361, 598.9451
5270014, 52.9323, 598.9451
5270015, 53.5179, 598.9451
5270016, 54.2088, 598.9451
5270017, 55.0241, 598.9451
5270018, 55.9861, 598.9451
5270019, 57.1213, 598.9451
5270020, 58.4609, 598.9451
5270021, 60.0415, 598.9451
5270022, 61.9067, 598.9451
5270023, 64.1076, 598.9451
5270024, 66.7047, 598.9451
5270025, 69.7692, 598.9451
5270026, 73.3854, 598.9451
5270027, 77.6525, 598.9451
5270028, 82.6876, 598.9451
5270029, 88.6291, 598.9451
5270030, 95.6400, 598.9451
5270031, 103.9129, 598.9451
5270032, 113.6750, 598.9451
5270033, 125.1942, 598.9451
5270034, 138.7868, 598.9451
5270035, 154.8261, 598.9451
5270036, 173.7525, 598.9451
5270037, 196.0857, 598.9451
5270038, 222.4388, 598.9451
5270039, 253.5355, 598.9451
5270040, 290.2296, 598.9451
5270041, 333.5287, 598.9451
5270042, 384.6215, 598.9451
5270043, 444.9111, 598.9451
5270044, 516.0528, 598.9451
5270045, 600.0000, 598.9451
5280000, 50.0000, 610.2474
5280001, 50.0577, 610.2474
5280002, 50.1258, 610.2474
5280003, 50.2061, 610.2474
5280004, 50.3009, 610.2474
5280005, 50.4128, 610.2474
5280006, 50.5448, 610.2474
5280007, 50.7006, 610.2474
5280008, 50.8844, 610.2474
5280009, 51.1013, 610.2474
5280010, 51.3572, 610.2474
5280011, 51.6593, 610.2474
5280012, 52.0156, 610.2474
5280013, 52.4361, 610.2474
5280014, 52.9323, 610.2474
5280015, 53.5179, 610.2474
5280016, 54.2088, 610.2474
5280017, 55.0241, 610.2474
5280018, 55.9861, 610.2474
5280019, 57.1213, 610.2474
5280020, 58.4609, 610.2474
5280021, 60.0415, 610.2474
5280022, 61.9067, 610.2474
5280023, 64.1076, 610.2474
5280024, 66.7047, 610.2474
5280025, 69.7692, 610.2474
5280026, 73.3854, 610.2474
5280027, 77.6525, 610.2474
5280028, 82.6876, 610.2474
5280029, 88.6291, 610.2474
5280030, 95.6400, 610.2474
5280031, 103.9129, 610.2474
5280032, 113.6750, 610.2474
5280033, 125.1942, 610.2474
5280034, 138.7868, 610.2474
5280035, 154.8261, 610.2474
5280036, 173.7525, 610.2474
5280037, 196.0857, 610.2474
5280038, 222.4388, 610.2474
5280039, 253.5355, 610.2474
5280040, 290.2296, 610.2474
5280041, 333.5287, 610.2474
5280042, 384.6215, 610.2474
5280043, 444.9111, 610.2474
5280044, 516.0528, 610.2474
5280045, 600.0000, 610.2474
5290000, 50.0000, 621.0629
5290001, 50.0577, 621.0629
5290002, 50.1258, 621.0629
5290003, 50.2061, 621.0629
5290004, 50.3009, 621.0629
5290005, 50.4128, 621.0629
5290006, 50.5448, 621.0629
5290007, 50.7006, 621.0629
5290008, 50.8844, 621.0629
5290009, 51.1013, 621.0629
5290010, 51.3572, 621.0629
5290011, 51.6593, 621.0629
5290012, 52.0156, 621.0629
5290013, 52.4361, 621.0629
5290014, 52.9323, 621.0629
5290015, 53.5179, 621.0629
5290016, 54.2088, 621.0629
5290017, 55.0241, 621.0629
5290018, 55.9861, 621.0629
5290019, 57.1213, 621.0629
5290020, 58.4609, 621.0629
5290021, 60.0415, 621.0629
5290022, 61.9067, 621.0629
5290023, 64.1076, 621.0629
5290024, 66.7047, 621.0629
5290025, 69.7692, 621.0629
5290026, 73.3854, 621.0629
5290027, 77.6525, 621.0629
5290028, 82.6876, 621.0629
5290029, 88.6291, 621.0629
5290030, 95.6400, 621.0629
5290031, 103.9129, 621.0629
5290032, 113.6750, 621.0629
5290033, 125.1942, 621.0629
5290034, 138.7868, 621.0629
5290035, 154.8261, 621.0629
5290036, 173.7525, 621.0629
5290037, 196.0857, 621.0629
5290038, 222.4388, 621.0629
5290039, 253.5355, 621.0629
5290040, 290.2296, 621.0629
5290041, 333.5287, 621.0629
5290042, 384.6215, 621.0629
5290043, 444.9111, 621.0629
5290044, 516.0528, 621.0629
5290045, 600.0000, 621.0629
5300000, 50.0000, 631.4128
5300001, 50.0577, 631.4128
5300002, 50.1258, 631.4128
5300003, 50.2061, 631.4128
5300004, 50.3009, 631.4128
5300005, 50.4128, 631.4128
5300006, 50.5448, 631.4128
5300007, 50.7006, 631.4128
5300008, 50.8844, 631.4128
5300009, 51.1013, 631.4128
5300010, 51.3572, 631.4128
5300011, 51.6593, 631.4128
5300012, 52.0156, 631.4128
5300013, 52.4361, 631.4128
5300014, 52.9323, 631.4128
5300015, 53.5179, 631.4128
5300016, 54.2088, 631.4128
5300017, 55.0241, 631.4128
5300018, 55.9861, 631.4128
5300019, 57.1213, 631.4128
5300020, 58.4609, 631.4128
5300021, 60.0415, 631.4128
5300022, 61.9067, 631.4128
5300023, 64.1076, 631.4128
5300024, 66.7047, 631.4128
5300025, 69.7692, 631.4128
5300026, 73.3854, 631.4128
5300027, 77.6525, 631.4128
5300028, 82.6876, 631.4128
5300029, 88.6291, 631.4128
5300030, 95.6400, 631.4128
5300031, 103.9129, 631.4128
5300032, 113.6750, 631.4128
5300033, 125.1942, 631.4128
5300034, 138.7868, 631.4128
5300035, 154.8261, 631.4128
5300036, 173.7525, 631.4128
5300037, 196.0857, 631.4128
5300038, 222.4388, 631.4128
5300039, 253.5355, 631.4128
5300040, 290.2296, 631.4128
5300041, 333.5287, 631.4128
5300042, 384.6215, 631.4128
5300043, 444.9111, 631.4128
5300044, 516.0528, 631.4128
5300045, 600.0000, 631.4128
5310000, 50.0000, 641.3169
5310001, 50.0577, 641.3169
5310002, 50.1258, 641.3169
5310003, 50.2061, 641.3169
5310004, 50.3009, 641.3169
5310005, 50.4128, 641.3169
5310006, 50.5448, 641.3169
5310007, 50.7006, 641.3169
5310008, 50.8844, 641.3169
5310009, 51.1013, 641.3169
5310010, 51.3572, 641.3169
5310011, 51.6593, 641.3169
5310012, 52.0156, 641.3169
5310013, 52.4361, 641.3169
5310014, 52.9323, 641.3169
5310015, 53.5179, 641.3169
5310016, 54.2088, 641.3169
5310017, 55.0241, 641.3169
5310018, 55.9861, 641.3169
5310019, 57.1213, 641.3169
5310020, 58.4609, 641.3169
5310021, 60.0415, 641.3169
5310022, 61.9067, 641.3169
5310023, 64.1076, 641.3169
5310024, 66.7047, 641.3169
5310025, 69.7692, 641.3169
5310026, 73.3854, 641.3169
5310027, 77.6525, 641.3169
5310028, 82.6876, 641.3169
5310029, 88.6291, 641.3169
5310030, 95.6400, 641.3169
5310031, 103.9129, 641.3169
5310032, 113.6750, 641.3169
5310033, 125.1942, 641.3169
5310034, 138.7868, 641.3169
5310035, 154.8261, 641.3169
5310036, 173.7525, 641.3169
5310037, 196.0857, 641.3169
5310038, 222.4388, 641.3169
5310039, 253.5355, 641.3169
5310040, 290.2296, 641.3169
5310041, 333.5287, 641.3169
5310042, 384.6215, 641.3169
5310043, 444.9111, 641.3169
5310044, 516.0528, 641.3169
5310045, 600.0000, 641.3169
5320000, 50.0000, 650.7946
5320001, 50.0577, 650.7946
5320002, 50.1258, 650.7946
5320003, 50.2061, 650.7946
5320004, 50.3009, 650.7946
5320005, 50.4128, 650.7946
5320006, 50.5448, 650.7946
5320007, 50.7006, 650.7946
5320008, 50.8844, 650.7946
5320009, 51.1013, 650.7946
5320010, 51.3572, 650.7946
5320011, 51.6593, 650.7946
5320012, 52.0156, 650.7946
5320013, 52.4361, 650.7946
5320014, 52.9323, 650.7946
5320015, 53.5179, 650.7946
5320016, 54.2088, 650.7946
5320017, 55.0241, 650.7946
5320018, 55.9861, 650.7946
5320019, 57.1213, 650.7946
5320020, 58.4609, 650.7946
5320021, 60.0415, 650.7946
5320022, 61.9067, 650.7946
5320023, 64.1076, 650.7946
5320024, 66.7047, 650.7946
5320025, 69.7692, 650.7946
5320026, 73.3854, 650.7946
5320027, 77.6525, 650.7946
5320028, 82.6876, 650.7946
5320029, 88.6291, 650.7946
5320030, 95.6400, 650.7946
5320031, 103.9129, 650.7946
5320032, 113.6750, 650.7946
5320033, 125.1942, 650.7946
5320034, 138.7868, 650.7946
5320035, 154.8261, 650.7946
5320036, 173.7525, 650.7946
5320037, 196.0857, 650.7946
5320038, 222.4388, 650.7946
5320039, 253.5355, 650.7946
5320040, 290.2296, 650.7946
5320041, 333.5287, 650.7946
5320042, 384.6215, 650.7946
5320043, 444.9111, 650.7946
5320044, 516.0528, 650.7946
5320045, 600.0000, 650.7946
5330000, 50.0000, 659.8641
5330001, 50.0577, 659.8641
5330002, 50.1258, 659.8641
5330003, 50.2061, 659.8641
5330004, 50.3009, 659.8641
5330005, 50.4128, 659.8641
5330006, 50.5448, 659.8641
5330007, 50.7006, 659.8641
5330008, 50.8844, 659.8641
5330009, 51.1013, 659.8641
5330010, 51.3572, 659.8641
5330011, 51.6593, 659.8641
5330012, 52.0156, 659.8641
5330013, 52.4361, 659.8641
5330014, 52.9323, 659.8641
5330015, 53.5179, 659.8641
5330016, 54.2088, 659.8641
5330017, 55.0241, 659.8641
5330018, 55.9861, 659.8641
5330019, 57.1213, 659.8641
5330020, 58.4609, 659.8641
5330021, 60.0415, 659.8641
5330022, 61.9067, 659.8641
5330023, 64.1076, 659.8641
5330024, 66.7047, 659.8641
5330025, 69.7692, 659.8641
5330026, 73.3854, 659.8641
5330027, 77.6525, 659.8641
5330028, 82.6876, 659.8641
5330029, 88.6291, 659.8641
5330030, 95.6400, 659.8641
5330031, 103.9129, 659.8641
5330032, 113.6750, 659.8641
5330033, 125.1942, 659.8641
5330034, 138.7868, 659.8641
5330035, 154.8261, 659.8641
5330036, 173.7525, 659.8641
5330037, 196.0857, 659.8641
5330038, 222.4388, 659.8641
5330039, 253.5355, 659.8641
5330040, 290.2296, 659.8641
5330041, 333.5287, 659.8641
5330042, 384.6215, 659.8641
5330043, 444.9111, 659.8641
5330044, 516.0528, 659.8641
5330045, 600.0000, 659.8641
5340000, 50.0000, 668.5431
5340001, 50.0577, 668.5431
5340002, 50.1258, 668.5431
5340003, 50.2061, 668.5431
5340004, 50.3009, 668.5431
5340005, 50.4128, 668.5431
5340006, 50.5448, 668.5431
5340007, 50.7006, 668.5431
5340008, 50.8844, 668.5431
5340009, 51.1013, 668.5431
5340010, 51.3572, 668.5431
5340011, 51.6593, 668.5431
5340012, 52.0156, 668.5431
5340013, 52.4361, 668.5431
5340014, 52.9323, 668.5431
5340015, 53.5179, 668.5431
5340016, 54.2088, 668.5431
5340017, 55.0241, 668.5431
5340018, 55.9861, 668.5431
5340019, 57.1213, 668.5431
5340020, 58.4609, 668.5431
5340021, 60.0415, 668.5431
5340022, 61.9067, 668.5431
5340023, 64.1076, 668.5431
5340024, 66.7047, 668.5431
5340025, 69.7692, 668.5431
5340026, 73.3854, 668.5431
5340027, 77.6525, 668.5431
5340028, 82.6876, 668.5431
5340029, 88.6291, 668.5431
5340030, 95.6400, 668.5431
5340031, 103.9129, 668.5431
5340032, 113.6750, 668.5431
5340033, 125.1942, 668.5431
5340034, 138.7868, 668.5431
5340035, 154.8261, 668.5431
5340036, 173.7525, 668.5431
5340037, 196.0857, 668.5431
5340038, 222.4388, 668.5431
5340039, 253.5355, 668.5431
5340040, 290.2296, 668.5431
5340041, 333.5287, 668.5431
5340042, 384.6215, 668.5431
5340043, 444.9111, 668.5431
5340044, 516.0528, 668.5431
5340045, 600.0000, 668.5431
5350000, 50.0000, 676.8483
5350001, 50.0577, 676.8483
5350002, 50.1258, 676.8483
5350003, 50.2061, 676.8483
5350004, 50.3009, 676.8483
5350005, 50.4128, 676.8483
5350006, 50.5448, 676.8483
5350007, 50.7006, 676.8483
5350008, 50.8844, 676.8483
5350009, 51.1013, 676.8483
5350010, 51.3572, 676.8483
5350011, 51.6593, 676.8483
5350012, 52.0156, 676.8483
5350013, 52.4361, 676.8483
5350014, 52.9323, 676.8483
5350015, 53.5179, 676.8483
5350016, 54.2088, 676.8483
5350017, 55.0241, 676.8483
5350018, 55.9861, 676.8483
5350019, 57.1213, 676.8483
5350020, 58.4609, 676.8483
5350021, 60.0415, 676.8483
5350022, 61.9067, 676.8483
5350023, 64.1076, 676.8483
5350024, 66.7047, 676.8483
5350025, 69.7692, 676.8483
5350026, 73.3854, 676.8483
5350027, 77.6525, 676.8483
5350028, 82.6876, 676.8483
5350029, 88.6291, 676.8483
5350030, 95.6400, 676.8483
5350031, 103.9129, 676.8483
5350032, 113.6750, 676.8483
5350033, 125.1942, 676.8483
5350034, 138.7868, 676.8483
5350035, 154.8261, 676.8483
5350036, 173.7525, 676.8483
5350037, 196.0857, 676.8483
5350038, 222.4388, 676.8483
5350039, 253.5355, 676.8483
5350040, 290.2296, 676.8483
5350041, 333.5287, 676.8483
5350042, 384.6215, 676.8483
5350043, 444.9111, 676.8483
5350044, 516.0528, 676.8483
5350045, 600.0000, 676.8483
5360000, 50.0000, 684.7959
5360001, 50.0577, 684.7959
5360002, 50.1258, 684.7959
5360003, 50.2061, 684.7959
5360004, 50.3009, 684.7959
5360005, 50.4128, 684.7959
5360006, 50.5448, 684.7959
5360007, 50.7006, 684.7959
5360008, 50.8844, 684.7959
5360009, 51.1013, 684.7959
5360010, 51.3572, 684.7959
5360011, 51.6593, 684.7959
5360012, 52.0156, 684.7959
5360013, 52.4361, 684.7959
5360014, 52.9323, 684.7959
5360015, 53.5179, 684.7959
5360016, 54.2088, 684.7959
5360017, 55.0241, 684.7959
5360018, 55.9861, 684.7959
5360019, 57.1213, 684.7959
5360020, 58.4609, 684.7959
5360021, 60.0415, 684.7959
5360022, 61.9067, 684.7959
5360023, 64.1076, 684.7959
5360024, 66.7047, 684.7959
5360025, 69.7692, 684.7959
5360026, 73.3854, 684.7959
5360027, 77.6525, 684.7959
5360028, 82.6876, 684.7959
5360029, 88.6291, 684.7959
5360030, 95.6400, 684.7959
5360031, 103.9129, 684.7959
5360032, 113.6750, 684.7959
5360033, 125.1942, 684.7959
5360034, 138.7868, 684.7959
5360035, 154.8261, 684.7959
5360036, 173.7525, 684.7959
5360037, 196.0857, 684.7959
5360038, 222.4388, 684.7959
5360039, 253.5355, 684.7959
5360040, 290.2296, 684.7959
5360041, 333.5287, 684.7959
5360042, 384.6215, 684.7959
5360043, 444.9111, 684.7959
5360044, 516.0528, 684.7959
5360045, 600.0000, 684.7959
5370000, 50.0000, 692.4012
5370001, 50.0577, 692.4012
5370002, 50.1258, 692.4012
5370003, 50.2061, 692.4012
5370004, 50.3009, 692.4012
5370005, 50.4128, 692.4012
5370006, 50.5448, 692.4012
5370007, 50.7006, 692.4012
5370008, 50.8844, 692.4012
5370009, 51.1013, 692.4012
5370010, 51.3572, 692.4012
5370011, 51.6593, 692.4012
5370012, 52.0156, 692.4012
5370013, 52.4361, 692.4012
5370014, 52.9323, 692.4012
5370015, 53.5179, 692.4012
5370016, 54.2088, 692.4012
5370017, 55.0241, 692.4012
5370018, 55.9861, 692.4012
5370019, 57.1213, 692.4012
5370020, 58.4609, 692.4012
5370021, 60.0415, 692.4012
5370022, 61.9067, 692.4012
5370023, 64.1076, 692.4012
5370024, 66.7047, 692.4012
5370025, 69.7692, 692.4012
5370026, 73.3854, 692.4012
5370027, 77.6525, 692.4012
5370028, 82.6876, 692.4012
5370029, 88.6291, 692.4012
5370030, 95.6400, 692.4012
5370031, 103.9129, 692.4012
5370032, 113.6750, 692.4012
5370033, 125.1942, 692.4012
5370034, 138.7868, 692.4012
5370035, 154.8261, 692.4012
5370036, 173.7525, 692.4012
5370037, 196.0857, 692.4012
5370038, 222.4388, 692.4012
5370039, 253.5355, 692.4012
5370040, 290.2296, 692.4012
5370041, 333.5287, 692.4012
5370042, 384.6215, 692.4012
5370043, 444.9111, 692.4012
5370044, 516.0528, 692.4012
5370045, 600.0000, 692.4012
5380000, 50.0000, 699.6791
5380001, 50.0577, 699.6791
5380002, 50.1258, 699.6791
5380003, 50.2061, 699.6791
5380004, 50.3009, 699.6791
5380005, 50.4128, 699.6791
5380006, 50.5448, 699.6791
5380007, 50.7006, 699.6791
5380008, 50.8844, 699.6791
5380009, 51.1013, 699.6791
5380010, 51.3572, 699.6791
5380011, 51.6593, 699.6791
5380012, 52.0156, 699.6791
5380013, 52.4361, 699.6791
5380014, 52.9323, 699.6791
5380015, 53.5179, 699.6791
5380016, 54.2088, 699.6791
5380017, 55.0241, 699.6791
5380018, 55.9861, 699.6791
5380019, 57.1213, 699.6791
5380020, 58.4609, 699.6791
5380021, 60.0415, 699.6791
5380022, 61.9067, 699.6791
5380023, 64.1076, 699.6791
5380024, 66.7047, 699.6791
5380025, 69.7692, 699.6791
5380026, 73.3854, 699.6791
5380027, 77.6525, 699.6791
5380028, 82.6876, 699.6791
5380029, 88.6291, 699.6791
5380030, 95.6400, 699.6791
5380031, 103.9129, 699.6791
5380032, 113.6750, 699.6791
5380033, 125.1942, 699.6791
5380034, 138.7868, 699.6791
5380035, 154.8261, 699.6791
5380036, 173.7525, 699.6791
5380037, 196.0857, 699.6791
5380038, 222.4388, 699.6791
5380039, 253.5355, 699.6791
5380040, 290.2296, 699.6791
5380041, 333.5287, 699.6791
5380042, 384.6215, 699.6791
5380043, 444.9111, 699.6791
5380044, 516.0528, 699.6791
5380045, 600.0000, 699.6791
5390000, 50.0000, 706.6435
5390001, 50.0577, 706.6435
5390002, 50.1258, 706.6435
5390003, 50.2061, 706.6435
5390004, 50.3009, 706.6435
5390005, 50.4128, 706.6435
5390006, 50.5448, 706.6435
5390007, 50.7006, 706.6435
5390008, 50.8844, 706.6435
5390009, 51.1013, 706.6435
5390010, 51.3572, 706.6435
5390011, 51.6593, 706.6435
5390012, 52.0156, 706.6435
5390013, 52.4361, 706.6435
5390014, 52.9323, 706.6435
5390015, 53.5179, 706.6435
5390016, 54.2088, 706.6435
5390017, 55.0241, 706.6435
5390018, 55.9861, 706.6435
5390019, 57.1213, 706.6435
5390020, 58.4609, 706.6435
5390021, 60.0415, 706.6435
5390022, 61.9067, 706.6435
5390023, 64.1076, 706.6435
5390024, 66.7047, 706.6435
5390025, 69.7692, 706.6435
5390026, 73.3854, 706.6435
5390027, 77.6525, 706.6435
5390028, 82.6876, 706.6435
5390029, 88.6291, 706.6435
5390030, 95.6400, 706.6435
5390031, 103.9129, 706.6435
5390032, 113.6750, 706.6435
5390033, 125.1942, 706.6435
5390034, 138.7868, 706.6435
5390035, 154.8261, 706.6435
5390036, 173.7525, 706.6435
5390037, 196.0857, 706.6435
5390038, 222.4388, 706.6435
5390039, 253.5355, 706.6435
5390040, 290.2296, 706.6435
5390041, 333.5287, 706.6435
5390042, 384.6215, 706.6435
5390043, 444.9111, 706.6435
5390044, 516.0528, 706.6435
5390045, 600.0000, 706.6435
5400000, 50.0000, 713.3081
5400001, 50.0577, 713.3081
5400002, 50.1258, 713.3081
5400003, 50.2061, 713.3081
5400004, 50.3009, 713.3081
5400005, 50.4128, 713.3081
5400006, 50.5448, 713.3081
5400007, 50.7006, 713.3081
5400008, 50.8844, 713.3081
5400009, 51.1013, 713.3081
5400010, 51.3572, 713.3081
5400011, 51.6593, 713.3081
5400012, 52.0156, 713.3081
5400013, 52.4361, 713.3081
5400014, 52.9323, 713.3081
5400015, 53.5179, 713.3081
5400016, 54.2088, 713.3081
5400017, 55.0241, 713.3081
5400018, 55.9861, 713.3081
5400019, 57.1213, 713.3081
5400020, 58.4609, 713.3081
5400021, 60.0415, 713.3081
5400022, 61.9067, 713.3081
5400023, 64.1076, 713.3081
5400024, 66.7047, 713.3081
5400025, 69.7692, 713.3081
5400026, 73.3854, 713.3081
5400027, 77.6525, 713.3081
5400028, 82.6876, 713.3081
5400029, 88.6291, 713.3081
5400030, 95.6400, 713.3081
5400031, 103.9129, 713.3081
5400032, 113.6750, 713.3081
5400033, 125.1942, 713.3081
5400034, 138.7868, 713.3081
5400035, 154.8261, 713.3081
5400036, 173.7525, 713.3081
5400037, 196.0857, 713.3081
5400038, 222.4388, 713.3081
5400039, 253.5355, 713.3081
5400040, 290.2296, 713.3081
5400041, 333.5287, 713.3081
5400042, 384.6215, 713.3081
5400043, 444.9111, 713.3081
5400044, 516.0528, 713.3081
5400045, 600.0000, 713.3081
5410000, 50.0000, 719.6856
5410001, 50.0577, 719.6856
5410002, 50.1258, 719.6856
5410003, 50.2061, 719.6856
5410004, 50.3009, 719.6856
5410005, 50.4128, 719.6856
5410006, 50.5448, 719.6856
5410007, 50.7006, 719.6856
5410008, 50.8844, 719.6856
5410009, 51.1013, 719.6856
5410010, 51.3572, 719.6856
5410011, 51.6593, 719.6856
5410012, 52.0156, 719.6856
5410013, 52.4361, 719.6856
5410014, 52.9323, 719.6856
5410015, 53.5179, 719.6856
5410016, 54.2088, 719.6856
5410017, 55.0241, 719.6856
5410018, 55.9861, 719.6856
5410019, 57.1213, 719.6856
5410020, 58.4609, 719.6856
5410021, 60.0415, 719.6856
5410022, 61.9067, 719.6856
5410023, 64.1076, 719.6856
5410024, 66.7047, 719.6856
5410025, 69.7692, 719.6856
5410026, 73.3854, 719.6856
5410027, 77.6525, 719.6856
5410028, 82.6876, 719.6856
5410029, 88.6291, 719.6856
5410030, 95.6400, 719.6856
5410031, 103.9129, 719.6856
5410032, 113.6750, 719.6856
5410033, 125.1942, 719.6856
5410034, 138.7868, 719.6856
5410035, 154.8261, 719.6856
5410036, 173.7525, 719.6856
5410037, 196.0857, 719.6856
5410038, 222.4388, 719.6856
5410039, 253.5355, 719.6856
5410040, 290.2296, 719.6856
5410041, 333.5287, 719.6856
5410042, 384.6215, 719.6856
5410043, 444.9111, 719.6856
5410044, 516.0528, 719.6856
5410045, 600.0000, 719.6856
5420000, 50.0000, 725.7885
5420001, 50.0577, 725.7885
5420002, 50.1258, 725.7885
5420003, 50.2061, 725.7885
5420004, 50.3009, 725.7885
5420005, 50.4128, 725.7885
5420006, 50.5448, 725.7885
5420007, 50.7006, 725.7885
5420008, 50.8844, 725.7885
5420009, 51.1013, 725.7885
5420010, 51.3572, 725.7885
5420011, 51.6593, 725.7885
5420012, 52.0156, 725.7885
5420013, 52.4361, 725.7885
5420014, 52.9323, 725.7885
5420015, 53.5179, 725.7885
5420016, 54.2088, 725.7885
5420017, 55.0241, 725.7885
5420018, 55.9861, 725.7885
5420019, 57.1213, 725.7885
5420020, 58.4609, 725.7885
5420021, 60.0415, 725.7885
5420022, 61.9067, 725.7885
5420023, 64.1076, 725.7885
5420024, 66.7047, 725.7885
5420025, 69.7692, 725.7885
5420026, 73.3854, 725.7885
5420027, 77.6525, 725.7885
5420028, 82.6876, 725.7885
5420029, 88.6291, 725.7885
5420030, 95.6400, 725.7885
5420031, 103.9129, 725.7885
5420032, 113.6750, 725.7885
5420033, 125.1942, 725.7885
5420034, 138.7868, 725.7885
5420035, 154.8261, 725.7885
5420036, 173.7525, 725.7885
5420037, 196.0857, 725.7885
5420038, 222.4388, 725.7885
5420039, 253.5355, 725.7885
5420040, 290.2296, 725.7885
5420041, 333.5287, 725.7885
5420042, 384.6215, 725.7885
5420043, 444.9111, 725.7885
5420044, 516.0528, 725.7885
5420045, 600.0000, 725.7885
5430000, 50.0000, 731.6287
5430001, 50.0577, 731.6287
5430002, 50.1258, 731.6287
5430003, 50.2061, 731.6287
5430004, 50.3009, 731.6287
5430005, 50.4128, 731.6287
5430006, 50.5448, 731.6287
5430007, 50.7006, 731.6287
5430008, 50.8844, 731.6287
5430009, 51.1013, 731.6287
5430010, 51.3572, 731.6287
5430011, 51.6593, 731.6287
5430012, 52.0156, 731.6287
5430013, 52.4361, 731.6287
5430014, 52.9323, 731.6287
5430015, 53.5179, 731.6287
5430016, 54.2088, 731.6287
5430017, 55.0241, 731.6287
5430018, 55.9861, 731.6287
5430019, 57.1213, 731.6287
5430020, 58.4609, 731.6287
5430021, 60.0415, 731.6287
5430022, 61.9067, 731.6287
5430023, 64.1076, 731.6287
5430024, 66.7047, 731.6287
5430025, 69.7692, 731.6287
5430026, 73.3854, 731.6287
5430027, 77.6525, 731.6287
5430028, 82.6876, 731.6287
5430029, 88.6291, 731.6287
5430030, 95.6400, 731.6287
5430031, 103.9129, 731.6287
5430032, 113.6750, 731.6287
5430033, 125.1942, 731.6287
5430034, 138.7868, 731.6287
5430035, 154.8261, 731.6287
5430036, 173.7525, 731.6287
5430037, 196.0857, 731.6287
5430038, 222.4388, 731.6287
5430039, 253.5355, 731.6287
5430040, 290.2296, 731.6287
5430041, 333.5287, 731.6287
5430042, 384.6215, 731.6287
5430043, 444.9111, 731.6287
5430044, 516.0528, 731.6287
5430045, 600.0000, 731.6287
5440000, 50.0000, 737.2173
5440001, 50.0577, 737.2173
5440002, 50.1258, 737.2173
5440003, 50.2061, 737.2173
5440004, 50.3009, 737.2173
5440005, 50.4128, 737.2173
5440006, 50.5448, 737.2173
5440007, 50.7006, 737.2173
5440008, 50.8844, 737.2173
5440009, 51.1013, 737.2173
5440010, 51.3572, 737.2173
5440011, 51.6593, 737.2173
5440012, 52.0156, 737.2173
5440013, 52.4361, 737.2173
5440014, 52.9323, 737.2173
5440015, 53.5179, 737.2173
5440016, 54.2088, 737.2173
5440017, 55.0241, 737.2173
5440018, 55.9861, 737.2173
5440019, 57.1213, 737.2173
5440020, 58.4609, 737.2173
5440021, 60.0415, 737.2173
5440022, 61.9067, 737.2173
5440023, 64.1076, 737.2173
5440024, 66.7047, 737.2173
5440025, 69.7692, 737.2173
5440026, 73.3854, 737.2173
5440027, 77.6525, 737.2173
5440028, 82.6876, 737.2173
5440029, 88.6291, 737.2173
5440030, 95.6400, 737.2173
5440031, 103.9129, 737.2173
5440032, 113.6750, 737.2173
5440033, 125.1942, 737.2173
5440034, 138.7868, 737.2173
5440035, 154.8261, 737.2173
5440036, 173.7525, 737.2173
5440037, 196.0857, 737.2173
5440038, 222.4388, 737.2173
5440039, 253.5355, 737.2173
5440040, 290.2296, 737.2173
5440041, 333.5287, 737.2173
5440042, 384.6215, 737.2173
5440043, 444.9111, 737.2173
5440044, 516.0528, 737.2173
5440045, 600.0000, 737.2173
5450000, 50.0000, 742.5652
5450001, 50.0577, 742.5652
5450002, 50.1258, 742.5652
5450003, 50.2061, 742.5652
5450004, 50.3009, 742.5652
5450005, 50.4128, 742.5652
5450006, 50.5448, 742.5652
5450007, 50.7006, 742.5652
5450008, 50.8844, 742.5652
5450009, 51.1013, 742.5652
5450010, 51.3572, 742.5652
5450011, 51.6593, 742.5652
5450012, 52.0156, 742.5652
5450013, 52.4361, 742.5652
5450014, 52.9323, 742.5652
5450015, 53.5179, 742.5652
5450016, 54.2088, 742.5652
5450017, 55.0241, 742.5652
5450018, 55.9861, 742.5652
5450019, 57.1213, 742.5652
5450020, 58.4609, 742.5652
5450021, 60.0415, 742.5652
5450022, 61.9067, 742.5652
5450023, 64.1076, 742.5652
5450024, 66.7047, 742.5652
5450025, 69.7692, 742.5652
5450026, 73.3854, 742.5652
5450027, 77.6525, 742.5652
5450028, 82.6876, 742.5652
5450029, 88.6291, 742.5652
5450030, 95.6400, 742.5652
5450031, 103.9129, 742.5652
5450032, 113.6750, 742.5652
5450033, 125.1942, 742.5652
5450034, 138.7868, 742.5652
5450035, 154.8261, 742.5652
5450036, 173.7525, 742.5652
5450037, 196.0857, 742.5652
5450038, 222.4388, 742.5652
5450039, 253.5355, 742.5652
5450040, 290.2296, 742.5652
5450041, 333.5287, 742.5652
5450042, 384.6215, 742.5652
5450043, 444.9111, 742.5652
5450044, 516.0528, 742.5652
5450045, 600.0000, 742.5652
5460000, 50.0000, 747.6829
5460001, 50.0577, 747.6829
5460002, 50.1258, 747.6829
5460003, 50.2061, 747.6829
5460004, 50.3009, 747.6829
5460005, 50.4128, 747.6829
5460006, 50.5448, 747.6829
5460007, 50.7006, 747.6829
5460008, 50.8844, 747.6829
5460009, 51.1013, 747.6829
5460010, 51.3572, 747.6829
5460011, 51.6593, 747.6829
5460012, 52.0156, 747.6829
5460013, 52.4361, 747.6829
5460014, 52.9323, 747.6829
5460015, 53.5179, 747.6829
5460016, 54.2088, 747.6829
5460017, 55.0241, 747.6829
5460018, 55.9861, 747.6829
5460019, 57.1213, 747.6829
5460020, 58.4609, 747.6829
5460021, 60.0415, 747.6829
5460022, 61.9067, 747.6829
5460023, 64.1076, 747.6829
5460024, 66.7047, 747.6829
5460025, 69.7692, 747.6829
5460026, 73.3854, 747.6829
5460027, 77.6525, 747.6829
5460028, 82.6876, 747.6829
5460029, 88.6291, 747.6829
5460030, 95.6400, 747.6829
5460031, 103.9129, 747.6829
5460032, 113.6750, 747.6829
5460033, 125.1942, 747.6829
5460034, 138.7868, 747.6829
5460035, 154.8261, 747.6829
5460036, 173.7525, 747.6829
5460037, 196.0857, 747.6829
5460038, 222.4388, 747.6829
5460039, 253.5355, 747.6829
5460040, 290.2296, 747.6829
5460041, 333.5287, 747.6829
5460042, 384.6215, 747.6829
5460043, 444.9111, 747.6829
5460044, 516.0528, 747.6829
5460045, 600.0000, 747.6829
5470000, 50.0000, 752.5802
5470001, 50.0577, 752.5802
5470002, 50.1258, 752.5802
5470003, 50.2061, 752.5802
5470004, 50.3009, 752.5802
5470005, 50.4128, 752.5802
5470006, 50.5448, 752.5802
5470007, 50.7006, 752.5802
5470008, 50.8844, 752.5802
5470009, 51.1013, 752.5802
5470010, 51.3572, 752.5802
5470011, 51.6593, 752.5802
5470012, 52.0156, 752.5802
5470013, 52.4361, 752.5802
5470014, 52.9323, 752.5802
5470015, 53.5179, 752.5802
5470016, 54.2088, 752.5802
5470017, 55.0241, 752.5802
5470018, 55.9861, 752.5802
5470019, 57.1213, 752.5802
5470020, 58.4609, 752.5802
5470021, 60.0415, 752.5802
5470022, 61.9067, 752.5802
5470023, 64.1076, 752.5802
5470024, 66.7047, 752.5802
5470025, 69.7692, 752.5802
5470026, 73.3854, 752.5802
5470027, 77.6525, 752.5802
5470028, 82.6876, 752.5802
5470029, 88.6291, 752.5802
5470030, 95.6400, 752.5802
5470031, 103.9129, 752.5802
5470032, 113.6750, 752.5802
5470033, 125.1942, 752.5802
5470034, 138.7868, 752.5802
5470035, 154.8261, 752.5802
5470036, 173.7525, 752.5802
5470037, 196.0857, 752.5802
5470038, 222.4388, 752.5802
5470039, 253.5355, 752.5802
5470040, 290.2296, 752.5802
5470041, 333.5287, 752.5802
5470042, 384.6215, 752.5802
5470043, 444.9111, 752.5802
5470044, 516.0528, 752.5802
5470045, 600.0000, 752.5802
5480000, 50.0000, 757.2666
5480001, 50.0577, 757.2666
5480002, 50.1258, 757.2666
5480003, 50.2061, 757.2666
5480004, 50.3009, 757.2666
5480005, 50.4128, 757.2666
5480006, 50.5448, 757.2666
5480007, 50.7006, 757.2666
5480008, 50.8844, 757.2666
5480009, 51.1013, 757.2666
5480010, 51.3572, 757.2666
5480011, 51.6593, 757.2666
5480012, 52.0156, 757.2666
5480013, 52.4361, 757.2666
5480014, 52.9323, 757.2666
5480015, 53.5179, 757.2666
5480016, 54.2088, 757.2666
5480017, 55.0241, 757.2666
5480018, 55.9861, 757.2666
5480019, 57.1213, 757.2666
5480020, 58.4609, 757.2666
5480021, 60.0415, 757.2666
5480022, 61.9067, 757.2666
5480023, 64.1076, 757.2666
5480024, 66.7047, 757.2666
5480025, 69.7692, 757.2666
5480026, 73.3854, 757.2666
5480027, 77.6525, 757.2666
5480028, 82.6876, 757.2666
5480029, 88.6291, 757.2666
5480030, 95.6400, 757.2666
5480031, 103.9129, 757.2666
5480032, 113.6750, 757.2666
5480033, 125.1942, 757.2666
5480034, 138.7868, 757.2666
5480035, 154.8261, 757.2666
5480036, 173.7525, 757.2666
5480037, 196.0857, 757.2666
5480038, 222.4388, 757.2666
5480039, 253.5355, 757.2666
5480040, 290.2296, 757.2666
5480041, 333.5287, 757.2666
5480042, 384.6215, 757.2666
5480043, 444.9111, 757.2666
5480044, 516.0528, 757.2666
5480045, 600.0000, 757.2666
5490000, 50.0000, 761.7512
5490001, 50.0577, 761.7512
5490002, 50.1258, 761.7512
5490003, 50.2061, 761.7512
5490004, 50.3009, 761.7512
5490005, 50.4128, 761.7512
5490006, 50.5448, 761.7512
5490007, 50.7006, 761.7512
5490008, 50.8844, 761.7512
5490009, 51.1013, 761.7512
5490010, 51.3572, 761.7512
5490011, 51.6593, 761.7512
5490012, 52.0156, 761.7512
5490013, 52.4361, 761.7512
5490014, 52.9323, 761.7512
5490015, 53.5179, 761.7512
5490016, 54.2088, 761.7512
5490017, 55.0241, 761.7512
5490018, 55.9861, 761.7512
5490019, 57.1213, 761.7512
5490020, 58.4609, 761.7512
5490021, 60.0415, 761.7512
5490022, 61.9067, 761.7512
5490023, 64.1076, 761.7512
5490024, 66.7047, 761.7512
5490025, 69.7692, 761.7512
5490026, 73.3854, 761.7512
5490027, 77.6525, 761.7512
5490028, 82.6876, 761.7512
5490029, 88.6291, 761.7512
5490030, 95.6400, 761.7512
5490031, 103.9129, 761.7512
5490032, 113.6750, 761.7512
5490033, 125.1942, 761.7512
5490034, 138.7868, 761.7512
5490035, 154.8261, 761.7512
5490036, 173.7525, 761.7512
5490037, 196.0857, 761.7512
5490038, 222.4388, 761.7512
5490039, 253.5355, 761.7512
5490040, 290.2296, 761.7512
5490041, 333.5287, 761.7512
5490042, 384.6215, 761.7512
5490043, 444.9111, 761.7512
5490044, 516.0528, 761.7512
5490045, 600.0000, 761.7512
5500000, 50.0000, 766.0427
5500001, 50.0577, 766.0427
5500002, 50.1258, 766.0427
5500003, 50.2061, 766.0427
5500004, 50.3009, 766.0427
5500005, 50.4128, 766.0427
5500006, 50.5448, 766.0427
5500007, 50.7006, 766.0427
5500008, 50.8844, 766.0427
5500009, 51.1013, 766.0427
5500010, 51.3572, 766.0427
5500011, 51.6593, 766.0427
5500012, 52.0156, 766.0427
5500013, 52.4361, 766.0427
5500014, 52.9323, 766.0427
5500015, 53.5179, 766.0427
5500016, 54.2088, 766.0427
5500017, 55.0241, 766.0427
5500018, 55.9861, 766.0427
5500019, 57.1213, 766.0427
5500020, 58.4609, 766.0427
5500021, 60.0415, 766.0427
5500022, 61.9067, 766.0427
5500023, 64.1076, 766.0427
5500024, 66.7047, 766.0427
5500025, 69.7692, 766.0427
5500026, 73.3854, 766.0427
5500027, 77.6525, 766.0427
5500028, 82.6876, 766.0427
5500029, 88.6291, 766.0427
5500030, 95.6400, 766.0427
5500031, 103.9129, 766.0427
5500032, 113.6750, 766.0427
5500033, 125.1942, 766.0427
5500034, 138.7868, 766.0427
5500035, 154.8261, 766.0427
5500036, 173.7525, 766.0427
5500037, 196.0857, 766.0427
5500038, 222.4388, 766.0427
5500039, 253.5355, 766.0427
5500040, 290.2296, 766.0427
5500041, 333.5287, 766.0427
5500042, 384.6215, 766.0427
5500043, 444.9111, 766.0427
5500044, 516.0528, 766.0427
5500045, 600.0000, 766.0427
5510000, 50.0000, 770.1494
5510001, 50.0577, 770.1494
5510002, 50.1258, 770.1494
5510003, 50.2061, 770.1494
5510004, 50.3009, 770.1494
5510005, 50.4128, 770.1494
5510006, 50.5448, 770.1494
5510007, 50.7006, 770.1494
5510008, 50.8844, 770.1494
5510009, 51.1013, 770.1494
5510010, 51.3572, 770.1494
5510011, 51.6593, 770.1494
5510012, 52.0156, 770.1494
5510013, 52.4361, 770.1494
5510014, 52.9323, 770.1494
5510015, 53.5179, 770.1494
5510016, 54.2088, 770.1494
5510017, 55.0241, 770.1494
5510018, 55.9861, 770.1494
5510019, 57.1213, 770.1494
5510020, 58.4609, 770.1494
5510021, 60.0415, 770.1494
5510022, 61.9067, 770.1494
5510023, 64.1076, 770.1494
5510024, 66.7047, 770.1494
5510025, 69.7692, 770.1494
5510026, 73.3854, 770.1494
5510027, 77.6525, 770.1494
5510028, 82.6876, 770.1494
5510029, 88.6291, 770.1494
5510030, 95.6400, 770.1494
5510031, 103.9129, 770.1494
5510032, 113.6750, 770.1494
5510033, 125.1942, 770.1494
5510034, 138.7868, 770.1494
5510035, 154.8261, 770.1494
5510036, 173.7525, 770.1494
5510037, 196.0857, 770.1494
5510038, 222.4388, 770.1494
5510039, 253.5355, 770.1494
5510040, 290.2296, 770.1494
5510041, 333.5287, 770.1494
5510042, 384.6215, 770.1494
5510043, 444.9111, 770.1494
5510044, 516.0528, 770.1494
5510045, 600.0000, 770.1494
5520000, 50.0000, 774.0792
5520001, 50.0577, 774.0792
5520002, 50.1258, 774.0792
5520003, 50.2061, 774.0792
5520004, 50.3009, 774.0792
5520005, 50.4128, 774.0792
5520006, 50.5448, 774.0792
5520007, 50.7006, 774.0792
5520008, 50.8844, 774.0792
5520009, 51.1013, 774.0792
5520010, 51.3572, 774.0792
5520011, 51.6593, 774.0792
5520012, 52.0156, 774.0792
5520013, 52.4361, 774.0792
5520014, 52.9323, 774.0792
5520015, 53.5179, 774.0792
5520016, 54.2088, 774.0792
5520017, 55.0241, 774.0792
5520018, 55.9861, 774.0792
5520019, 57.1213, 774.0792
5520020, 58.4609, 774.0792
5520021, 60.0415, 774.0792
5520022, 61.9067, 774.0792
5520023, 64.1076, 774.0792
5520024, 66.7047, 774.0792
5520025, 69.7692, 774.0792
5520026, 73.3854, 774.0792
5520027, 77.6525, 774.0792
5520028, 82.6876, 774.0792
5520029, 88.6291, 774.0792
5520030, 95.6400, 774.0792
5520031, 103.9129, 774.0792
5520032, 113.6750, 774.0792
5520033, 125.1942, 774.0792
5520034, 138.7868, 774.0792
5520035, 154.8261, 774.0792
5520036, 173.7525, 774.0792
5520037, 196.0857, 774.0792
5520038, 222.4388, 774.0792
5520039, 253.5355, 774.0792
5520040, 290.2296, 774.0792
5520041, 333.5287, 774.0792
5520042, 384.6215, 774.0792
5520043, 444.9111, 774.0792
5520044, 516.0528, 774.0792
5520045, 600.0000, 774.0792
5530000, 50.0000, 777.8398
5530001, 50.0577, 777.8398
5530002, 50.1258, 777.8398
5530003, 50.2061, 777.8398
5530004, 50.3009, 777.8398
5530005, 50.4128, 777.8398
5530006, 50.5448, 777.8398
5530007, 50.7006, 777.8398
5530008, 50.8844, 777.8398
5530009, 51.1013, 777.8398
5530010, 51.3572, 777.8398
5530011, 51.6593, 777.8398
5530012, 52.0156, 777.8398
5530013, 52.4361, 777.8398
5530014, 52.9323, 777.8398
5530015, 53.5179, 777.8398
5530016, 54.2088, 777.8398
5530017, 55.0241, 777.8398
5530018, 55.9861, 777.8398
5530019, 57.1213, 777.8398
5530020, 58.4609, 777.8398
5530021, 60.0415, 777.8398
5530022, 61.9067, 777.8398
5530023, 64.1076, 777.8398
5530024, 66.7047, 777.8398
5530025, 69.7692, 777.8398
5530026, 73.3854, 777.8398
5530027, 77.6525, 777.8398
5530028, 82.6876, 777.8398
5530029, 88.6291, 777.8398
5530030, 95.6400, 777.8398
5530031, 103.9129, 777.8398
5530032, 113.6750, 777.8398
5530033, 125.1942, 777.8398
5530034, 138.7868, 777.8398
5530035, 154.8261, 777.8398
5530036, 173.7525, 777.8398
5530037, 196.0857, 777.8398
5530038, 222.4388, 777.8398
5530039, 253.5355, 777.8398
5530040, 290.2296, 777.8398
5530041, 333.5287, 777.8398
5530042, 384.6215, 777.8398
5530043, 444.9111, 777.8398
5530044, 516.0528, 777.8398
5530045, 600.0000, 777.8398
5540000, 50.0000, 781.4385
5540001, 50.0577, 781.4385
5540002, 50.1258, 781.4385
5540003, 50.2061, 781.4385
5540004, 50.3009, 781.4385
5540005, 50.4128, 781.4385
5540006, 50.5448, 781.4385
5540007, 50.7006, 781.4385
5540008, 50.8844, 781.4385
5540009, 51.1013, 781.4385
5540010, 51.3572, 781.4385
5540011, 51.6593, 781.4385
5540012, 52.0156, 781.4385
5540013, 52.4361, 781.4385
5540014, 52.9323, 781.4385
5540015, 53.5179, 781.4385
5540016, 54.2088, 781.4385
5540017, 55.0241, 781.4385
5540018, 55.9861, 781.4385
5540019, 57.1213, 781.4385
5540020, 58.4609, 781.4385
5540021, 60.0415, 781.4385
5540022, 61.9067, 781.4385
5540023, 64.1076, 781.4385
5540024, 66.7047, 781.4385
5540025, 69.7692, 781.4385
5540026, 73.3854, 781.4385
5540027, 77.6525, 781.4385
5540028, 82.6876, 781.4385
5540029, 88.6291, 781.4385
5540030, 95.6400, 781.4385
5540031, 103.9129, 781.4385
5540032, 113.6750, 781.4385
5540033, 125.1942, 781.4385
5540034, 138.7868, 781.4385
5540035, 154.8261, 781.4385
5540036, 173.7525, 781.4385
5540037, 196.0857, 781.4385
5540038, 222.4388, 781.4385
5540039, 253.5355, 781.4385
5540040, 290.2296, 781.4385
5540041, 333.5287, 781.4385
5540042, 384.6215, 781.4385
5540043, 444.9111, 781.4385
5540044, 516.0528, 781.4385
5540045, 600.0000, 781.4385
5550000, 50.0000, 784.8822
5550001, 50.0577, 784.8822
5550002, 50.1258, 784.8822
5550003, 50.2061, 784.8822
5550004, 50.3009, 784.8822
5550005, 50.4128, 784.8822
5550006, 50.5448, 784.8822
5550007, 50.7006, 784.8822
5550008, 50.8844, 784.8822
5550009, 51.1013, 784.8822
5550010, 51.3572, 784.8822
5550011, 51.6593, 784.8822
5550012, 52.0156, 784.8822
5550013, 52.4361, 784.8822
5550014, 52.9323, 784.8822
5550015, 53.5179, 784.8822
5550016, 54.2088, 784.8822
5550017, 55.0241, 784.8822
5550018, 55.9861, 784.8822
5550019, 57.1213, 784.8822
5550020, 58.4609, 784.8822
5550021, 60.0415, 784.8822
5550022, 61.9067, 784.8822
5550023, 64.1076, 784.8822
5550024, 66.7047, 784.8822
5550025, 69.7692, 784.8822
5550026, 73.3854, 784.8822
5550027, 77.6525, 784.8822
5550028, 82.6876, 784.8822
5550029, 88.6291, 784.8822
5550030, 95.6400, 784.8822
5550031, 103.9129, 784.8822
5550032, 113.6750, 784.8822
5550033, 125.1942, 784.8822
5550034, 138.7868, 784.8822
5550035, 154.8261, 784.8822
5550036, 173.7525, 784.8822
5550037, 196.0857, 784.8822
5550038, 222.4388, 784.8822
5550039, 253.5355, 784.8822
5550040, 290.2296, 784.8822
5550041, 333.5287, 784.8822
5550042, 384.6215, 784.8822
5550043, 444.9111, 784.8822
5550044, 516.0528, 784.8822
5550045, 600.0000, 784.8822
5560000, 50.0000, 788.1776
5560001, 50.0577, 788.1776
5560002, 50.1258, 788.1776
5560003, 50.2061, 788.1776
5560004, 50.3009, 788.1776
5560005, 50.4128, 788.1776
5560006, 50.5448, 788.1776
5560007, 50.7006, 788.1776
5560008, 50.8844, 788.1776
5560009, 51.1013, 788.1776
5560010, 51.3572, 788.1776
5560011, 51.6593, 788.1776
5560012, 52.0156, 788.1776
5560013, 52.4361, 788.1776
5560014, 52.9323, 788.1776
5560015, 53.5179, 788.1776
5560016, 54.2088, 788.1776
5560017, 55.0241, 788.1776
5560018, 55.9861, 788.1776
5560019, 57.1213, 788.1776
5560020, 58.4609, 788.1776
5560021, 60.0415, 788.1776
5560022, 61.9067, 788.1776
5560023, 64.1076, 788.1776
5560024, 66.7047, 788.1776
5560025, 69.7692, 788.1776
5560026, 73.3854, 788.1776
5560027, 77.6525, 788.1776
5560028, 82.6876, 788.1776
5560029, 88.6291, 788.1776
5560030, 95.6400, 788.1776
5560031, 103.9129, 788.1776
5560032, 113.6750, 788.1776
5560033, 125.1942, 788.1776
5560034, 138.7868, 788.1776
5560035, 154.8261, 788.1776
5560036, 173.7525, 788.1776
5560037, 196.0857, 788.1776
5560038, 222.4388, 788.1776
5560039, 253.5355, 788.1776
5560040, 290.2296, 788.1776
5560041, 333.5287, 788.1776
5560042, 384.6215, 788.1776
5560043, 444.9111, 788.1776
5560044, 516.0528, 788.1776
5560045, 600.0000, 788.1776
5570000, 50.0000, 791.3311
5570001, 50.0577, 791.3311
5570002, 50.1258, 791.3311
5570003, 50.2061, 791.3311
5570004, 50.3009, 791.3311
5570005, 50.4128, 791.3311
5570006, 50.5448, 791.3311
5570007, 50.7006, 791.3311
5570008, 50.8844, 791.3311
5570009, 51.1013, 791.3311
5570010, 51.3572, 791.3311
5570011, 51.6593, 791.3311
5570012, 52.0156, 791.3311
5570013, 52.4361, 791.3311
5570014, 52.9323, 791.3311
5570015, 53.5179, 791.3311
5570016, 54.2088, 791.3311
5570017, 55.0241, 791.3311
5570018, 55.9861, 791.3311
5570019, 57.1213, 791.3311
5570020, 58.4609, 791.3311
5570021, 60.0415, 791.3311
5570022, 61.9067, 791.3311
5570023, 64.1076, 791.3311
5570024, 66.7047, 791.3311
5570025, 69.7692, 791.3311
5570026, 73.3854, 791.3311
5570027, 77.6525, 791.3311
5570028, 82.6876, 791.3311
5570029, 88.6291, 791.3311
5570030, 95.6400, 791.3311
5570031, 103.9129, 791.3311
5570032, 113.6750, 791.3311
5570033, 125.1942, 791.3311
5570034, 138.7868, 791.3311
5570035, 154.8261, 791.3311
5570036, 173.7525, 791.3311
5570037, 196.0857, 791.3311
5570038, 222.4388, 791.3311
5570039, 253.5355, 791.3311
5570040, 290.2296, 791.3311
5570041, 333.5287, 791.3311
5570042, 384.6215, 791.3311
5570043, 444.9111, 791.3311
5570044, 516.0528, 791.3311
5570045, 600.0000, 791.3311
5580000, 50.0000, 794.3488
5580001, 50.0577, 794.3488
5580002, 50.1258, 794.3488
5580003, 50.2061, 794.3488
5580004, 50.3009, 794.3488
5580005, 50.4128, 794.3488
5580006, 50.5448, 794.3488
5580007, 50.7006, 794.3488
5580008, 50.8844, 794.3488
5580009, 51.1013, 794.3488
5580010, 51.3572, 794.3488
5580011, 51.6593, 794.3488
5580012, 52.0156, 794.3488
5580013, 52.4361, 794.3488
5580014, 52.9323, 794.3488
5580015, 53.5179, 794.3488
5580016, 54.2088, 794.3488
5580017, 55.0241, 794.3488
5580018, 55.9861, 794.3488
5580019, 57.1213, 794.3488
5580020, 58.4609, 794.3488
5580021, 60.0415, 794.3488
5580022, 61.9067, 794.3488
5580023, 64.1076, 794.3488
5580024, 66.7047, 794.3488
5580025, 69.7692, 794.3488
5580026, 73.3854, 794.3488
5580027, 77.6525, 794.3488
5580028, 82.6876, 794.3488
5580029, 88.6291, 794.3488
5580030, 95.6400, 794.3488
5580031, 103.9129, 794.3488
5580032, 113.6750, 794.3488
5580033, 125.1942, 794.3488
5580034, 138.7868, 794.3488
5580035, 154.8261, 794.3488
5580036, 173.7525, 794.3488
5580037, 196.0857, 794.3488
5580038, 222.4388, 794.3488
5580039, 253.5355, 794.3488
5580040, 290.2296, 794.3488
5580041, 333.5287, 794.3488
5580042, 384.6215, 794.3488
5580043, 444.9111, 794.3488
5580044, 516.0528, 794.3488
5580045, 600.0000, 794.3488
5590000, 50.0000, 797.2366
5590001, 50.0577, 797.2366
5590002, 50.1258, 797.2366
5590003, 50.2061, 797.2366
5590004, 50.3009, 797.2366
5590005, 50.4128, 797.2366
5590006, 50.5448, 797.2366
5590007, 50.7006, 797.2366
5590008, 50.8844, 797.2366
5590009, 51.1013, 797.2366
5590010, 51.3572, 797.2366
5590011, 51.6593, 797.2366
5590012, 52.0156, 797.2366
5590013, 52.4361, 797.2366
5590014, 52.9323, 797.2366
5590015, 53.5179, 797.2366
5590016, 54.2088, 797.2366
5590017, 55.0241, 797.2366
5590018, 55.9861, 797.2366
5590019, 57.1213, 797.2366
5590020, 58.4609, 797.2366
5590021, 60.0415, 797.2366
5590022, 61.9067, 797.2366
5590023, 64.1076, 797.2366
5590024, 66.7047, 797.2366
5590025, 69.7692, 797.2366
5590026, 73.3854, 797.2366
5590027, 77.6525, 797.2366
5590028, 82.6876, 797.2366
5590029, 88.6291, 797.2366
5590030, 95.6400, 797.2366
5590031, 103.9129, 797.2366
5590032, 113.6750, 797.2366
5590033, 125.1942, 797.2366
5590034, 138.7868, 797.2366
5590035, 154.8261, 797.2366
5590036, 173.7525, 797.2366
5590037, 196.0857, 797.2366
5590038, 222.4388, 797.2366
5590039, 253.5355, 797.2366
5590040, 290.2296, 797.2366
5590041, 333.5287, 797.2366
5590042, 384.6215, 797.2366
5590043, 444.9111, 797.2366
5590044, 516.0528, 797.2366
5590045, 600.0000, 797.2366
5600000, 50.0000, 800.0000
5600001, 50.0577, 800.0000
5600002, 50.1258, 800.0000
5600003, 50.2061, 800.0000
5600004, 50.3009, 800.0000
5600005, 50.4128, 800.0000
5600006, 50.5448, 800.0000
5600007, 50.7006, 800.0000
5600008, 50.8844, 800.0000
5600009, 51.1013, 800.0000
5600010, 51.3572, 800.0000
5600011, 51.6593, 800.0000
5600012, 52.0156, 800.0000
5600013, 52.4361, 800.0000
5600014, 52.9323, 800.0000
5600015, 53.5179, 800.0000
5600016, 54.2088, 800.0000
5600017, 55.0241, 800.0000
5600018, 55.9861, 800.0000
5600019, 57.1213, 800.0000
5600020, 58.4609, 800.0000
5600021, 60.0415, 800.0000
5600022, 61.9067, 800.0000
5600023, 64.1076, 800.0000
5600024, 66.7047, 800.0000
5600025, 69.7692, 800.0000
5600026, 73.3854, 800.0000
5600027, 77.6525, 800.0000
5600028, 82.6876, 800.0000
5600029, 88.6291, 800.0000
5600030, 95.6400, 800.0000
5600031, 103.9129, 800.0000
5600032, 113.6750, 800.0000
5600033, 125.1942, 800.0000
5600034, 138.7868, 800.0000
5600035, 154.8261, 800.0000
5600036, 173.7525, 800.0000
5600037, 196.0857, 800.0000
5600038, 222.4388, 800.0000
5600039, 253.5355, 800.0000
5600040, 290.2296, 800.0000
5600041, 333.5287, 800.0000
5600042, 384.6215, 800.0000
5600043, 444.9111, 800.0000
5600044, 516.0528, 800.0000
5600045, 600.0000, 800.0000
*ELEMENT, TYPE=CAX4R
1, 1, 2, 10002, 10001
2, 2, 3, 10003, 10002
3, 3, 4, 10004, 10003
4, 4, 5, 10005, 10004
5, 5, 6, 10006, 10005
6, 6, 7, 10007, 10006
7, 7, 8, 10008, 10007
8, 8, 9, 10009, 10008
9, 9, 10, 10010, 10009
10, 10, 11, 10011, 10010
11, 10001, 10002, 20002, 20001
12, 10002, 10003, 20003, 20002
13, 10003, 10004, 20004, 20003
14, 10004, 10005, 20005, 20004
15, 10005, 10006, 20006, 20005
16, 10006, 10007, 20007, 20006
17, 10007, 10008, 20008, 20007
18, 10008, 10009, 20009, 20008
19, 10009, 10010, 20010, 20009
20, 10010, 10011, 20011, 20010
21, 20001, 20002, 30002, 30001
22, 20002, 20003, 30003, 30002
23, 20003, 20004, 30004, 30003
24, 20004, 20005, 30005, 30004
25, 20005, 20006, 30006, 30005
26, 20006, 20007, 30007, 30006
27, 20007, 20008, 30008, 30007
28, 20008, 20009, 30009, 30008
29, 20009, 20010, 30010, 30009
30, 20010, 20011, 30011, 30010
31, 30001, 30002, 40002, 40001
32, 30002, 30003, 40003, 40002
33, 30003, 30004, 40004, 40003
34, 30004, 30005, 40005, 40004
35, 30005, 30006, 40006, 40005
36, 30006, 30007, 40007, 40006
37, 30007, 30008, 40008, 40007
38, 30008, 30009, 40009, 40008
39, 30009, 30010, 40010, 40009
40, 30010, 30011, 40011, 40010
41, 40001, 40002, 50002, 50001
42, 40002, 40003, 50003, 50002
43, 40003, 40004, 50004, 50003
44, 40004, 40005, 50005, 50004
45, 40005, 40006, 50006, 50005
46, 40006, 40007, 50007, 50006
47, 40007, 40008, 50008, 50007
48, 40008, 40009, 50009, 50008
49, 40009, 40010, 50010, 50009
50, 40010, 40011, 50011, 50010
51, 50001, 50002, 60002, 60001
52, 50002, 50003, 60003, 60002
53, 50003, 50004, 60004, 60003
54, 50004, 50005, 60005, 60004
55, 50005, 50006, 60006, 60005
56, 50006, 50007, 60007, 60006
57, 50007, 50008, 60008, 60007
58, 50008, 50009, 60009, 60008
59, 50009, 50010, 60010, 60009
60, 50010, 50011, 60011, 60010
61, 60001, 60002, 70002, 70001
62, 60002, 60003, 70003, 70002
63, 60003, 60004, 70004, 70003
64, 60004, 60005, 70005, 70004
65, 60005, 60006, 70006, 70005
66, 60006, 60007, 70007, 70006
67, 60007, 60008, 70008, 70007
68, 60008, 60009, 70009, 70008
69, 60009, 60010, 70010, 70009
70, 60010, 60011, 70011, 70010
71, 70001, 70002, 80002, 80001
72, 70002, 70003, 80003, 80002
73, 70003, 70004, 80004, 80003
74, 70004, 70005, 80005, 80004
75, 70005, 70006, 80006, 80005
76, 70006, 70007, 80007, 80006
77, 70007, 70008, 80008, 80007
78, 70008, 70009, 80009, 80008
79, 70009, 70010, 80010, 80009
80, 70010, 70011, 80011, 80010
81, 80001, 80002, 90002, 90001
82, 80002, 80003, 90003, 90002
83, 80003, 80004, 90004, 90003
84, 80004, 80005, 90005, 90004
85, 80005, 80006, 90006, 90005
86, 80006, 80007, 90007, 90006
87, 80007, 80008, 90008, 90007
88, 80008, 80009, 90009, 90008
89, 80009, 80010, 90010, 90009
90, 80010, 80011, 90011, 90010
91, 90001, 90002, 100002, 100001
92, 90002, 90003, 100003, 100002
93, 90003, 90004, 100004, 100003
94, 90004, 90005, 100005, 100004
95, 90005, 90006, 100006, 100005
96, 90006, 90007, 100007, 100006
97, 90007, 90008, 100008, 100007
98, 90008, 90009, 100009, 100008
99, 90009, 90010, 100010, 100009
100, 90010, 90011, 100011, 100010
101, 100001, 100002, 110002, 110001
102, 100002, 100003, 110003, 110002
103, 100003, 100004, 110004, 110003
104, 100004, 100005, 110005, 110004
105, 100005, 100006, 110006, 110005
106, 100006, 100007, 110007, 110006
107, 100007, 100008, 110008, 110007
108, 100008, 100009, 110009, 110008
109, 100009, 100010, 110010, 110009
110, 100010, 100011, 110011, 110010
111, 110001, 110002, 120002, 120001
112, 110002, 110003, 120003, 120002
113, 110003, 110004, 120004, 120003
114, 110004, 110005, 120005, 120004
115, 110005, 110006, 120006, 120005
116, 110006, 110007, 120007, 120006
117, 110007, 110008, 120008, 120007
118, 110008, 110009, 120009, 120008
119, 110009, 110010, 120010, 120009
120, 110010, 110011, 120011, 120010
121, 120001, 120002, 130002, 130001
122, 120002, 120003, 130003, 130002
123, 120003, 120004, 130004, 130003
124, 120004, 120005, 130005, 130004
125, 120005, 120006, 130006, 130005
126, 120006, 120007, 130007, 130006
127, 120007, 120008, 130008, 130007
128, 120008, 120009, 130009, 130008
129, 120009, 120010, 130010, 130009
130, 120010, 120011, 130011, 130010
131, 130001, 130002, 140002, 140001
132, 130002, 130003, 140003, 140002
133, 130003, 130004, 140004, 140003
134, 130004, 130005, 140005, 140004
135, 130005, 130006, 140006, 140005
136, 130006, 130007, 140007, 140006
137, 130007, 130008, 140008, 140007
138, 130008, 130009, 140009, 140008
139, 130009, 130010, 140010, 140009
140, 130010, 130011, 140011, 140010
141, 140001, 140002, 150002, 150001
142, 140002, 140003, 150003, 150002
143, 140003, 140004, 150004, 150003
144, 140004, 140005, 150005, 150004
145, 140005, 140006, 150006, 150005
146, 140006, 140007, 150007, 150006
147, 140007, 140008, 150008, 150007
148, 140008, 140009, 150009, 150008
149, 140009, 140010, 150010, 150009
150, 140010, 140011, 150011, 150010
151, 150001, 150002, 160002, 160001
152, 150002, 150003, 160003, 160002
153, 150003, 150004, 160004, 160003
154, 150004, 150005, 160005, 160004
155, 150005, 150006, 160006, 160005
156, 150006, 150007, 160007, 160006
157, 150007, 150008, 160008, 160007
158, 150008, 150009, 160009, 160008
159, 150009, 150010, 160010, 160009
160, 150010, 150011, 160011, 160010
161, 160001, 160002, 170002, 170001
162, 160002, 160003, 170003, 170002
163, 160003, 160004, 170004, 170003
164, 160004, 160005, 170005, 170004
165, 160005, 160006, 170006, 170005
166, 160006, 160007, 170007, 170006
167, 160007, 160008, 170008, 170007
168, 160008, 160009, 170009, 170008
169, 160009, 160010, 170010, 170009
170, 160010, 160011, 170011, 170010
171, 170001, 170002, 180002, 180001
172, 170002, 170003, 180003, 180002
173, 170003, 170004, 180004, 180003
174, 170004, 170005, 180005, 180004
175, 170005, 170006, 180006, 180005
176, 170006, 170007, 180007, 180006
177, 170007, 170008, 180008, 180007
178, 170008, 170009, 180009, 180008
179, 170009, 170010, 180010, 180009
180, 170010, 170011, 180011, 180010
181, 180001, 180002, 190002, 190001
182, 180002, 180003, 190003, 190002
183, 180003, 180004, 190004, 190003
184, 180004, 180005, 190005, 190004
185, 180005, 180006, 190006, 190005
186, 180006, 180007, 190007, 190006
187, 180007, 180008, 190008, 190007
188, 180008, 180009, 190009, 190008
189, 180009, 180010, 190010, 190009
190, 180010, 180011, 190011, 190010
191, 190001, 190002, 200002, 200001
192, 190002, 190003, 200003, 200002
193, 190003, 190004, 200004, 200003
194, 190004, 190005, 200005, 200004
195, 190005, 190006, 200006, 200005
196, 190006, 190007, 200007, 200006
197, 190007, 190008, 200008, 200007
198, 190008, 190009, 200009, 200008
199, 190009, 190010, 200010, 200009
200, 190010, 190011, 200011, 200010
201, 200001, 200002, 210002, 210001
202, 200002, 200003, 210003, 210002
203, 200003, 200004, 210004, 210003
204, 200004, 200005, 210005, 210004
205, 200005, 200006, 210006, 210005
206, 200006, 200007, 210007, 210006
207, 200007, 200008, 210008, 210007
208, 200008, 200009, 210009, 210008
209, 200009, 200010, 210010, 210009
210, 200010, 200011, 210011, 210010
211, 210001, 210002, 220002, 220001
212, 210002, 210003, 220003, 220002
213, 210003, 210004, 220004, 220003
214, 210004, 210005, 220005, 220004
215, 210005, 210006, 220006, 220005
216, 210006, 210007, 220007, 220006
217, 210007, 210008, 220008, 220007
218, 210008, 210009, 220009, 220008
219, 210009, 210010, 220010, 220009
220, 210010, 210011, 220011, 220010
221, 220001, 220002, 230002, 230001
222, 220002, 220003, 230003, 230002
223, 220003, 220004, 230004, 230003
224, 220004, 220005, 230005, 230004
225, 220005, 220006, 230006, 230005
226, 220006, 220007, 230007, 230006
227, 220007, 220008, 230008, 230007
228, 220008, 220009, 230009, 230008
229, 220009, 220010, 230010, 230009
230, 220010, 220011, 230011, 230010
231, 230001, 230002, 240002, 240001
232, 230002, 230003, 240003, 240002
233, 230003, 230004, 240004, 240003
234, 230004, 230005, 240005, 240004
235, 230005, 230006, 240006, 240005
236, 230006, 230007, 240007, 240006
237, 230007, 230008, 240008, 240007
238, 230008, 230009, 240009, 240008
239, 230009, 230010, 240010, 240009
240, 230010, 230011, 240011, 240010
241, 240001, 240002, 250002, 250001
242, 240002, 240003, 250003, 250002
243, 240003, 240004, 250004, 250003
244, 240004, 240005, 250005, 250004
245, 240005, 240006, 250006, 250005
246, 240006, 240007, 250007, 250006
247, 240007, 240008, 250008, 250007
248, 240008, 240009, 250009, 250008
249, 240009, 240010, 250010, 250009
250, 240010, 240011, 250011, 250010
251, 250001, 250002, 260002, 260001
252, 250002, 250003, 260003, 260002
253, 250003, 250004, 260004, 260003
254, 250004, 250005, 260005, 260004
255, 250005, 250006, 260006, 260005
256, 250006, 250007, 260007, 260006
257, 250007, 250008, 260008, 260007
258, 250008, 250009, 260009, 260008
259, 250009, 250010, 260010, 260009
260, 250010, 250011, 260011, 260010
261, 260001, 260002, 270002, 270001
262, 260002, 260003, 270003, 270002
263, 260003, 260004, 270004, 270003
264, 260004, 260005, 270005, 270004
265, 260005, 260006, 270006, 270005
266, 260006, 260007, 270007, 270006
267, 260007, 260008, 270008, 270007
268, 260008, 260009, 270009, 270008
269, 260009, 260010, 270010, 270009
270, 260010, 260011, 270011, 270010
271, 270001, 270002, 280002, 280001
272, 270002, 270003, 280003, 280002
273, 270003, 270004, 280004, 280003
274, 270004, 270005, 280005, 280004
275, 270005, 270006, 280006, 280005
276, 270006, 270007, 280007, 280006
277, 270007, 270008, 280008, 280007
278, 270008, 270009, 280009, 280008
279, 270009, 270010, 280010, 280009
280, 270010, 270011, 280011, 280010
281, 280001, 280002, 290002, 290001
282, 280002, 280003, 290003, 290002
283, 280003, 280004, 290004, 290003
284, 280004, 280005, 290005, 290004
285, 280005, 280006, 290006, 290005
286, 280006, 280007, 290007, 290006
287, 280007, 280008, 290008, 290007
288, 280008, 280009, 290009, 290008
289, 280009, 280010, 290010, 290009
290, 280010, 280011, 290011, 290010
291, 290001, 290002, 300002, 300001
292, 290002, 290003, 300003, 300002
293, 290003, 290004, 300004, 300003
294, 290004, 290005, 300005, 300004
295, 290005, 290006, 300006, 300005
296, 290006, 290007, 300007, 300006
297, 290007, 290008, 300008, 300007
298, 290008, 290009, 300009, 300008
299, 290009, 290010, 300010, 300009
300, 290010, 290011, 300011, 300010
301, 300001, 300002, 310002, 310001
302, 300002, 300003, 310003, 310002
303, 300003, 300004, 310004, 310003
304, 300004, 300005, 310005, 310004
305, 300005, 300006, 310006, 310005
306, 300006, 300007, 310007, 310006
307, 300007, 300008, 310008, 310007
308, 300008, 300009, 310009, 310008
309, 300009, 300010, 310010, 310009
310, 300010, 300011, 310011, 310010
311, 310001, 310002, 320002, 320001
312, 310002, 310003, 320003, 320002
313, 310003, 310004, 320004, 320003
314, 310004, 310005, 320005, 320004
315, 310005, 310006, 320006, 320005
316, 310006, 310007, 320007, 320006
317, 310007, 310008, 320008, 320007
318, 310008, 310009, 320009, 320008
319, 310009, 310010, 320010, 320009
320, 310010, 310011, 320011, 320010
321, 320001, 320002, 330002, 330001
322, 320002, 320003, 330003, 330002
323, 320003, 320004, 330004, 330003
324, 320004, 320005, 330005, 330004
325, 320005, 320006, 330006, 330005
326, 320006, 320007, 330007, 330006
327, 320007, 320008, 330008, 330007
328, 320008, 320009, 330009, 330008
329, 320009, 320010, 330010, 330009
330, 320010, 320011, 330011, 330010
331, 330001, 330002, 340002, 340001
332, 330002, 330003, 340003, 340002
333, 330003, 330004, 340004, 340003
334, 330004, 330005, 340005, 340004
335, 330005, 330006, 340006, 340005
336, 330006, 330007, 340007, 340006
337, 330007, 330008, 340008, 340007
338, 330008, 330009, 340009, 340008
339, 330009, 330010, 340010, 340009
340, 330010, 330011, 340011, 340010
341, 340001, 340002, 350002, 350001
342, 340002, 340003, 350003, 350002
343, 340003, 340004, 350004, 350003
344, 340004, 340005, 350005, 350004
345, 340005, 340006, 350006, 350005
346, 340006, 340007, 350007, 350006
347, 340007, 340008, 350008, 350007
348, 340008, 340009, 350009, 350008
349, 340009, 340010, 350010, 350009
350, 340010, 340011, 350011, 350010
351, 350001, 350002, 360002, 360001
352, 350002, 350003, 360003, 360002
353, 350003, 350004, 360004, 360003
354, 350004, 350005, 360005, 360004
355, 350005, 350006, 360006, 360005
356, 350006, 350007, 360007, 360006
357, 350007, 350008, 360008, 360007
358, 350008, 350009, 360009, 360008
359, 350009, 350010, 360010, 360009
360, 350010, 350011, 360011, 360010
361, 360001, 360002, 370002, 370001
362, 360002, 360003, 370003, 370002
363, 360003, 360004, 370004, 370003
364, 360004, 360005, 370005, 370004
365, 360005, 360006, 370006, 370005
366, 360006, 360007, 370007, 370006
367, 360007, 360008, 370008, 370007
368, 360008, 360009, 370009, 370008
369, 360009, 360010, 370010, 370009
370, 360010, 360011, 370011, 370010
371, 370001, 370002, 380002, 380001
372, 370002, 370003, 380003, 380002
373, 370003, 370004, 380004, 380003
374, 370004, 370005, 380005, 380004
375, 370005, 370006, 380006, 380005
376, 370006, 370007, 380007, 380006
377, 370007, 370008, 380008, 380007
378, 370008, 370009, 380009, 380008
379, 370009, 370010, 380010, 380009
380, 370010, 370011, 380011, 380010
381, 380001, 380002, 390002, 390001
382, 380002, 380003, 390003, 390002
383, 380003, 380004, 390004, 390003
384, 380004, 380005, 390005, 390004
385, 380005, 380006, 390006, 390005
386, 380006, 380007, 390007, 390006
387, 380007, 380008, 390008, 390007
388, 380008, 380009, 390009, 390008
389, 380009, 380010, 390010, 390009
390, 380010, 380011, 390011, 390010
391, 390001, 390002, 400002, 400001
392, 390002, 390003, 400003, 400002
393, 390003, 390004, 400004, 400003
394, 390004, 390005, 400005, 400004
395, 390005, 390006, 400006, 400005
396, 390006, 390007, 400007, 400006
397, 390007, 390008, 400008, 400007
398, 390008, 390009, 400009, 400008
399, 390009, 390010, 400010, 400009
400, 390010, 390011, 400011, 400010
401, 400001, 400002, 410002, 410001
402, 400002, 400003, 410003, 410002
403, 400003, 400004, 410004, 410003
404, 400004, 400005, 410005, 410004
405, 400005, 400006, 410006, 410005
406, 400006, 400007, 410007, 410006
407, 400007, 400008, 410008, 410007
408, 400008, 400009, 410009, 410008
409, 400009, 400010, 410010, 410009
410, 400010, 400011, 410011, 410010
411, 410001, 410002, 420002, 420001
412, 410002, 410003, 420003, 420002
413, 410003, 410004, 420004, 420003
414, 410004, 410005, 420005, 420004
415, 410005, 410006, 420006, 420005
416, 410006, 410007, 420007, 420006
417, 410007, 410008, 420008, 420007
418, 410008, 410009, 420009, 420008
419, 410009, 410010, 420010, 420009
420, 410010, 410011, 420011, 420010
421, 420001, 420002, 430002, 430001
422, 420002, 420003, 430003, 430002
423, 420003, 420004, 430004, 430003
424, 420004, 420005, 430005, 430004
425, 420005, 420006, 430006, 430005
426, 420006, 420007, 430007, 430006
427, 420007, 420008, 430008, 430007
428, 420008, 420009, 430009, 430008
429, 420009, 420010, 430010, 430009
430, 420010, 420011, 430011, 430010
431, 430001, 430002, 440002, 440001
432, 430002, 430003, 440003, 440002
433, 430003, 430004, 440004, 440003
434, 430004, 430005, 440005, 440004
435, 430005, 430006, 440006, 440005
436, 430006, 430007, 440007, 440006
437, 430007, 430008, 440008, 440007
438, 430008, 430009, 440009, 440008
439, 430009, 430010, 440010, 440009
440, 430010, 430011, 440011, 440010
441, 440001, 440002, 450002, 450001
442, 440002, 440003, 450003, 450002
443, 440003, 440004, 450004, 450003
444, 440004, 440005, 450005, 450004
445, 440005, 440006, 450006, 450005
446, 440006, 440007, 450007, 450006
447, 440007, 440008, 450008, 450007
448, 440008, 440009, 450009, 450008
449, 440009, 440010, 450010, 450009
450, 440010, 440011, 450011, 450010
451, 450001, 450002, 460002, 460001
452, 450002, 450003, 460003, 460002
453, 450003, 450004, 460004, 460003
454, 450004, 450005, 460005, 460004
455, 450005, 450006, 460006, 460005
456, 450006, 450007, 460007, 460006
457, 450007, 450008, 460008, 460007
458, 450008, 450009, 460009, 460008
459, 450009, 450010, 460010, 460009
460, 450010, 450011, 460011, 460010
461, 460001, 460002, 470002, 470001
462, 460002, 460003, 470003, 470002
463, 460003, 460004, 470004, 470003
464, 460004, 460005, 470005, 470004
465, 460005, 460006, 470006, 470005
466, 460006, 460007, 470007, 470006
467, 460007, 460008, 470008, 470007
468, 460008, 460009, 470009, 470008
469, 460009, 460010, 470010, 470009
470, 460010, 460011, 470011, 470010
471, 470001, 470002, 480002, 480001
472, 470002, 470003, 480003, 480002
473, 470003, 470004, 480004, 480003
474, 470004, 470005, 480005, 480004
475, 470005, 470006, 480006, 480005
476, 470006, 470007, 480007, 480006
477, 470007, 470008, 480008, 480007
478, 470008, 470009, 480009, 480008
479, 470009, 470010, 480010, 480009
480, 470010, 470011, 480011, 480010
481, 480001, 480002, 490002, 490001
482, 480002, 480003, 490003, 490002
483, 480003, 480004, 490004, 490003
484, 480004, 480005, 490005, 490004
485, 480005, 480006, 490006, 490005
486, 480006, 480007, 490007, 490006
487, 480007, 480008, 490008, 490007
488, 480008, 480009, 490009, 490008
489, 480009, 480010, 490010, 490009
490, 480010, 480011, 490011, 490010
491, 490001, 490002, 500002, 500001
492, 490002, 490003, 500003, 500002
493, 490003, 490004, 500004, 500003
494, 490004, 490005, 500005, 500004
495, 490005, 490006, 500006, 500005
496, 490006, 490007, 500007, 500006
497, 490007, 490008, 500008, 500007
498, 490008, 490009, 500009, 500008
499, 490009, 490010, 500010, 500009
500, 490010, 490011, 500011, 500010
501, 500001, 500002, 510002, 510001
502, 500002, 500003, 510003, 510002
503, 500003, 500004, 510004, 510003
504, 500004, 500005, 510005, 510004
505, 500005, 500006, 510006, 510005
506, 500006, 500007, 510007, 510006
507, 500007, 500008, 510008, 510007
508, 500008, 500009, 510009, 510008
509, 500009, 500010, 510010, 510009
510, 500010, 500011, 510011, 510010
511, 510001, 510002, 520002, 520001
512, 510002, 510003, 520003, 520002
513, 510003, 510004, 520004, 520003
514, 510004, 510005, 520005, 520004
515, 510005, 510006, 520006, 520005
516, 510006, 510007, 520007, 520006
517, 510007, 510008, 520008, 520007
518, 510008, 510009, 520009, 520008
519, 510009, 510010, 520010, 520009
520, 510010, 510011, 520011, 520010
521, 520001, 520002, 530002, 530001
522, 520002, 520003, 530003, 530002
523, 520003, 520004, 530004, 530003
524, 520004, 520005, 530005, 530004
525, 520005, 520006, 530006, 530005
526, 520006, 520007, 530007, 530006
527, 520007, 520008, 530008, 530007
528, 520008, 520009, 530009, 530008
529, 520009, 520010, 530010, 530009
530, 520010, 520011, 530011, 530010
531, 530001, 530002, 540002, 540001
532, 530002, 530003, 540003, 540002
533, 530003, 530004, 540004, 540003
534, 530004, 530005, 540005, 540004
535, 530005, 530006, 540006, 540005
536, 530006, 530007, 540007, 540006
537, 530007, 530008, 540008, 540007
538, 530008, 530009, 540009, 540008
539, 530009, 530010, 540010, 540009
540, 530010, 530011, 540011, 540010
541, 540001, 540002, 550002, 550001
542, 540002, 540003, 550003, 550002
543, 540003, 540004, 550004, 550003
544, 540004, 540005, 550005, 550004
545, 540005, 540006, 550006, 550005
546, 540006, 540007, 550007, 550006
547, 540007, 540008, 550008, 550007
548, 540008, 540009, 550009, 550008
549, 540009, 540010, 550010, 550009
550, 540010, 540011, 550011, 550010
551, 550001, 550002, 560002, 560001
552, 550002, 550003, 560003, 560002
553, 550003, 550004, 560004, 560003
554, 550004, 550005, 560005, 560004
555, 550005, 550006, 560006, 560005
556, 550006, 550007, 560007, 560006
557, 550007, 550008, 560008, 560007
558, 550008, 550009, 560009, 560008
559, 550009, 550010, 560010, 560009
560, 550010, 550011, 560011, 560010
561, 560001, 560002, 570002, 570001
562, 560002, 560003, 570003, 570002
563, 560003, 560004, 570004, 570003
564, 560004, 560005, 570005, 570004
565, 560005, 560006, 570006, 570005
566, 560006, 560007, 570007, 570006
567, 560007, 560008, 570008, 570007
568, 560008, 560009, 570009, 570008
569, 560009, 560010, 570010, 570009
570, 560010, 560011, 570011, 570010
571, 570001, 570002, 580002, 580001
572, 570002, 570003, 580003, 580002
573, 570003, 570004, 580004, 580003
574, 570004, 570005, 580005, 580004
575, 570005, 570006, 580006, 580005
576, 570006, 570007, 580007, 580006
577, 570007, 570008, 580008, 580007
578, 570008, 570009, 580009, 580008
579, 570009, 570010, 580010, 580009
580, 570010, 570011, 580011, 580010
581, 580001, 580002, 590002, 590001
582, 580002, 580003, 590003, 590002
583, 580003, 580004, 590004, 590003
584, 580004, 580005, 590005, 590004
585, 580005, 580006, 590006, 590005
586, 580006, 580007, 590007, 590006
587, 580007, 580008, 590008, 590007
588, 580008, 580009, 590009, 590008
589, 580009, 580010, 590010, 590009
590, 580010, 580011, 590011, 590010
591, 590001, 590002, 600002, 600001
592, 590002, 590003, 600003, 600002
593, 590003, 590004, 600004, 600003
594, 590004, 590005, 600005, 600004
595, 590005, 590006, 600006, 600005
596, 590006, 590007, 600007, 600006
597, 590007, 590008, 600008, 600007
598, 590008, 590009, 600009, 600008
599, 590009, 590010, 600010, 600009
600, 590010, 590011, 600011, 600010
601, 5000000, 5000001, 5010001, 5010000
602, 5000001, 5000002, 5010002, 5010001
603, 5000002, 5000003, 5010003, 5010002
604, 5000003, 5000004, 5010004, 5010003
605, 5000004, 5000005, 5010005, 5010004
606, 5000005, 5000006, 5010006, 5010005
607, 5000006, 5000007, 5010007, 5010006
608, 5000007, 5000008, 5010008, 5010007
609, 5000008, 5000009, 5010009, 5010008
610, 5000009, 5000010, 5010010, 5010009
611, 5000010, 5000011, 5010011, 5010010
612, 5000011, 5000012, 5010012, 5010011
613, 5000012, 5000013, 5010013, 5010012
614, 5000013, 5000014, 5010014, 5010013
615, 5000014, 5000015, 5010015, 5010014
616, 5000015, 5000016, 5010016, 5010015
617, 5000016, 5000017, 5010017, 5010016
618, 5000017, 5000018, 5010018, 5010017
619, 5000018, 5000019, 5010019, 5010018
620, 5000019, 5000020, 5010020, 5010019
621, 5000020, 5000021, 5010021, 5010020
622, 5000021, 5000022, 5010022, 5010021
623, 5000022, 5000023, 5010023, 5010022
624, 5000023, 5000024, 5010024, 5010023
625, 5000024, 5000025, 5010025, 5010024
626, 5000025, 5000026, 5010026, 5010025
627, 5000026, 5000027, 5010027, 5010026
628, 5000027, 5000028, 5010028, 5010027
629, 5000028, 5000029, 5010029, 5010028
630, 5000029, 5000030, 5010030, 5010029
631, 5000030, 5000031, 5010031, 5010030
632, 5000031, 5000032, 5010032, 5010031
633, 5000032, 5000033, 5010033, 5010032
634, 5000033, 5000034, 5010034, 5010033
635, 5000034, 5000035, 5010035, 5010034
636, 5000035, 5000036, 5010036, 5010035
637, 5000036, 5000037, 5010037, 5010036
638, 5000037, 5000038, 5010038, 5010037
639, 5000038, 5000039, 5010039, 5010038
640, 5000039, 5000040, 5010040, 5010039
641, 5000040, 5000041, 5010041, 5010040
642, 5000041, 5000042, 5010042, 5010041
643, 5000042, 5000043, 5010043, 5010042
644, 5000043, 5000044, 5010044, 5010043
645, 5000044, 5000045, 5010045, 5010044
646, 5010000, 5010001, 5020001, 5020000
647, 5010001, 5010002, 5020002, 5020001
648, 5010002, 5010003, 5020003, 5020002
649, 5010003, 5010004, 5020004, 5020003
650, 5010004, 5010005, 5020005, 5020004
651, 5010005, 5010006, 5020006, 5020005
652, 5010006, 5010007, 5020007, 5020006
653, 5010007, 5010008, 5020008, 5020007
654, 5010008, 5010009, 5020009, 5020008
655, 5010009, 5010010, 5020010, 5020009
656, 5010010, 5010011, 5020011, 5020010
657, 5010011, 5010012, 5020012, 5020011
658, 5010012, 5010013, 5020013, 5020012
659, 5010013, 5010014, 5020014, 5020013
660, 5010014, 5010015, 5020015, 5020014
661, 5010015, 5010016, 5020016, 5020015
662, 5010016, 5010017, 5020017, 5020016
663, 5010017, 5010018, 5020018, 5020017
664, 5010018, 5010019, 5020019, 5020018
665, 5010019, 5010020, 5020020, 5020019
666, 5010020, 5010021, 5020021, 5020020
667, 5010021, 5010022, 5020022, 5020021
668, 5010022, 5010023, 5020023, 5020022
669, 5010023, 5010024, 5020024, 5020023
670, 5010024, 5010025, 5020025, 5020024
671, 5010025, 5010026, 5020026, 5020025
672, 5010026, 5010027, 5020027, 5020026
673, 5010027, 5010028, 5020028, 5020027
674, 5010028, 5010029, 5020029, 5020028
675, 5010029, 5010030, 5020030, 5020029
676, 5010030, 5010031, 5020031, 5020030
677, 5010031, 5010032, 5020032, 5020031
678, 5010032, 5010033, 5020033, 5020032
679, 5010033, 5010034, 5020034, 5020033
680, 5010034, 5010035, 5020035, 5020034
681, 5010035, 5010036, 5020036, 5020035
682, 5010036, 5010037, 5020037, 5020036
683, 5010037, 5010038, 5020038, 5020037
684, 5010038, 5010039, 5020039, 5020038
685, 5010039, 5010040, 5020040, 5020039
686, 5010040, 5010041, 5020041, 5020040
687, 5010041, 5010042, 5020042, 5020041
688, 5010042, 5010043, 5020043, 5020042
689, 5010043, 5010044, 5020044, 5020043
690, 5010044, 5010045, 5020045, 5020044
691, 5020000, 5020001, 5030001, 5030000
692, 5020001, 5020002, 5030002, 5030001
693, 5020002, 5020003, 5030003, 5030002
694, 5020003, 5020004, 5030004, 5030003
695, 5020004, 5020005, 5030005, 5030004
696, 5020005, 5020006, 5030006, 5030005
697, 5020006, 5020007, 5030007, 5030006
698, 5020007, 5020008, 5030008, 5030007
699, 5020008, 5020009, 5030009, 5030008
700, 5020009, 5020010, 5030010, 5030009
701, 5020010, 5020011, 5030011, 5030010
702, 5020011, 5020012, 5030012, 5030011
703, 5020012, 5020013, 5030013, 5030012
704, 5020013, 5020014, 5030014, 5030013
705, 5020014, 5020015, 5030015, 5030014
706, 5020015, 5020016, 5030016, 5030015
707, 5020016, 5020017, 5030017, 5030016
708, 5020017, 5020018, 5030018, 5030017
709, 5020018, 5020019, 5030019, 5030018
710, 5020019, 5020020, 5030020, 5030019
711, 5020020, 5020021, 5030021, 5030020
712, 5020021, 5020022, 5030022, 5030021
713, 5020022, 5020023, 5030023, 5030022
714, 5020023, 5020024, 5030024, 5030023
715, 5020024, 5020025, 5030025, 5030024
716, 5020025, 5020026, 5030026, 5030025
717, 5020026, 5020027, 5030027, 5030026
718, 5020027, 5020028, 5030028, 5030027
719, 5020028, 5020029, 5030029, 5030028
720, 5020029, 5020030, 5030030, 5030029
721, 5020030, 5020031, 5030031, 5030030
722, 5020031, 5020032, 5030032, 5030031
723, 5020032, 5020033, 5030033, 5030032
724, 5020033, 5020034, 5030034, 5030033
725, 5020034, 5020035, 5030035, 5030034
726, 5020035, 5020036, 5030036, 5030035
727, 5020036, 5020037, 5030037, 5030036
728, 5020037, 5020038, 5030038, 5030037
729, 5020038, 5020039, 5030039, 5030038
730, 5020039, 5020040, 5030040, 5030039
731, 5020040, 5020041, 5030041, 5030040
732, 5020041, 5020042, 5030042, 5030041
733, 5020042, 5020043, 5030043, 5030042
734, 5020043, 5020044, 5030044, 5030043
735, 5020044, 5020045, 5030045, 5030044
736, 5030000, 5030001, 5040001, 5040000
737, 5030001, 5030002, 5040002, 5040001
738, 5030002, 5030003, 5040003, 5040002
739, 5030003, 5030004, 5040004, 5040003
740, 5030004, 5030005, 5040005, 5040004
741, 5030005, 5030006, 5040006, 5040005
742, 5030006, 5030007, 5040007, 5040006
743, 5030007, 5030008, 5040008, 5040007
744, 5030008, 5030009, 5040009, 5040008
745, 5030009, 5030010, 5040010, 5040009
746, 5030010, 5030011, 5040011, 5040010
747, 5030011, 5030012, 5040012, 5040011
748, 5030012, 5030013, 5040013, 5040012
749, 5030013, 5030014, 5040014, 5040013
750, 5030014, 5030015, 5040015, 5040014
751, 5030015, 5030016, 5040016, 5040015
752, 5030016, 5030017, 5040017, 5040016
753, 5030017, 5030018, 5040018, 5040017
754, 5030018, 5030019, 5040019, 5040018
755, 5030019, 5030020, 5040020, 5040019
756, 5030020, 5030021, 5040021, 5040020
757, 5030021, 5030022, 5040022, 5040021
758, 5030022, 5030023, 5040023, 5040022
759, 5030023, 5030024, 5040024, 5040023
760, 5030024, 5030025, 5040025, 5040024
761, 5030025, 5030026, 5040026, 5040025
762, 5030026, 5030027, 5040027, 5040026
763, 5030027, 5030028, 5040028, 5040027
764, 5030028, 5030029, 5040029, 5040028
765, 5030029, 5030030, 5040030, 5040029
766, 5030030, 5030031, 5040031, 5040030
767, 5030031, 5030032, 5040032, 5040031
768, 5030032, 5030033, 5040033, 5040032
769, 5030033, 5030034, 5040034, 5040033
770, 5030034, 5030035, 5040035, 5040034
771, 5030035, 5030036, 5040036, 5040035
772, 5030036, 5030037, 5040037, 5040036
773, 5030037, 5030038, 5040038, 5040037
774, 5030038, 5030039, 5040039, 5040038
775, 5030039, 5030040, 5040040, 5040039
776, 5030040, 5030041, 5040041, 5040040
777, 5030041, 5030042, 5040042, 5040041
778, 5030042, 5030043, 5040043, 5040042
779, 5030043, 5030044, 5040044, 5040043
780, 5030044, 5030045, 5040045, 5040044
781, 5040000, 5040001, 5050001, 5050000
782, 5040001, 5040002, 5050002, 5050001
783, 5040002, 5040003, 5050003, 5050002
784, 5040003, 5040004, 5050004, 5050003
785, 5040004, 5040005, 5050005, 5050004
786, 5040005, 5040006, 5050006, 5050005
787, 5040006, 5040007, 5050007, 5050006
788, 5040007, 5040008, 5050008, 5050007
789, 5040008, 5040009, 5050009, 5050008
790, 5040009, 5040010, 5050010, 5050009
791, 5040010, 5040011, 5050011, 5050010
792, 5040011, 5040012, 5050012, 5050011
793, 5040012, 5040013, 5050013, 5050012
794, 5040013, 5040014, 5050014, 5050013
795, 5040014, 5040015, 5050015, 5050014
796, 5040015, 5040016, 5050016, 5050015
797, 5040016, 5040017, 5050017, 5050016
798, 5040017, 5040018, 5050018, 5050017
799, 5040018, 5040019, 5050019, 5050018
800, 5040019, 5040020, 5050020, 5050019
801, 5040020, 5040021, 5050021, 5050020
802, 5040021, 5040022, 5050022, 5050021
803, 5040022, 5040023, 5050023, 5050022
804, 5040023, 5040024, 5050024, 5050023
805, 5040024, 5040025, 5050025, 5050024
806, 5040025, 5040026, 5050026, 5050025
807, 5040026, 5040027, 5050027, 5050026
808, 5040027, 5040028, 5050028, 5050027
809, 5040028, 5040029, 5050029, 5050028
810, 5040029, 5040030, 5050030, 5050029
811, 5040030, 5040031, 5050031, 5050030
812, 5040031, 5040032, 5050032, 5050031
813, 5040032, 5040033, 5050033, 5050032
814, 5040033, 5040034, 5050034, 5050033
815, 5040034, 5040035, 5050035, 5050034
816, 5040035, 5040036, 5050036, 5050035
817, 5040036, 5040037, 5050037, 5050036
818, 5040037, 5040038, 5050038, 5050037
819, 5040038, 5040039, 5050039, 5050038
820, 5040039, 5040040, 5050040, 5050039
821, 5040040, 5040041, 5050041, 5050040
822, 5040041, 5040042, 5050042, 5050041
823, 5040042, 5040043, 5050043, 5050042
824, 5040043, 5040044, 5050044, 5050043
825, 5040044, 5040045, 5050045, 5050044
826, 5050000, 5050001, 5060001, 5060000
827, 5050001, 5050002, 5060002, 5060001
828, 5050002, 5050003, 5060003, 5060002
829, 5050003, 5050004, 5060004, 5060003
830, 5050004, 5050005, 5060005, 5060004
831, 5050005, 5050006, 5060006, 5060005
832, 5050006, 5050007, 5060007, 5060006
833, 5050007, 5050008, 5060008, 5060007
834, 5050008, 5050009, 5060009, 5060008
835, 5050009, 5050010, 5060010, 5060009
836, 5050010, 5050011, 5060011, 5060010
837, 5050011, 5050012, 5060012, 5060011
838, 5050012, 5050013, 5060013, 5060012
839, 5050013, 5050014, 5060014, 5060013
840, 5050014, 5050015, 5060015, 5060014
841, 5050015, 5050016, 5060016, 5060015
842, 5050016, 5050017, 5060017, 5060016
843, 5050017, 5050018, 5060018, 5060017
844, 5050018, 5050019, 5060019, 5060018
845, 5050019, 5050020, 5060020, 5060019
846, 5050020, 5050021, 5060021, 5060020
847, 5050021, 5050022, 5060022, 5060021
848, 5050022, 5050023, 5060023, 5060022
849, 5050023, 5050024, 5060024, 5060023
850, 5050024, 5050025, 5060025, 5060024
851, 5050025, 5050026, 5060026, 5060025
852, 5050026, 5050027, 5060027, 5060026
853, 5050027, 5050028, 5060028, 5060027
854, 5050028, 5050029, 5060029, 5060028
855, 5050029, 5050030, 5060030, 5060029
856, 5050030, 5050031, 5060031, 5060030
857, 5050031, 5050032, 5060032, 5060031
858, 5050032, 5050033, 5060033, 5060032
859, 5050033, 5050034, 5060034, 5060033
860, 5050034, 5050035, 5060035, 5060034
861, 5050035, 5050036, 5060036, 5060035
862, 5050036, 5050037, 5060037, 5060036
863, 5050037, 5050038, 5060038, 5060037
864, 5050038, 5050039, 5060039, 5060038
865, 5050039, 5050040, 5060040, 5060039
866, 5050040, 5050041, 5060041, 5060040
867, 5050041, 5050042, 5060042, 5060041
868, 5050042, 5050043, 5060043, 5060042
869, 5050043, 5050044, 5060044, 5060043
870, 5050044, 5050045, 5060045, 5060044
871, 5060000, 5060001, 5070001, 5070000
872, 5060001, 5060002, 5070002, 5070001
873, 5060002, 5060003, 5070003, 5070002
874, 5060003, 5060004, 5070004, 5070003
875, 5060004, 5060005, 5070005, 5070004
876, 5060005, 5060006, 5070006, 5070005
877, 5060006, 5060007, 5070007, 5070006
878, 5060007, 5060008, 5070008, 5070007
879, 5060008, 5060009, 5070009, 5070008
880, 5060009, 5060010, 5070010, 5070009
881, 5060010, 5060011, 5070011, 5070010
882, 5060011, 5060012, 5070012, 5070011
883, 5060012, 5060013, 5070013, 5070012
884, 5060013, 5060014, 5070014, 5070013
885, 5060014, 5060015, 5070015, 5070014
886, 5060015, 5060016, 5070016, 5070015
887, 5060016, 5060017, 5070017, 5070016
888, 5060017, 5060018, 5070018, 5070017
889, 5060018, 5060019, 5070019, 5070018
890, 5060019, 5060020, 5070020, 5070019
891, 5060020, 5060021, 5070021, 5070020
892, 5060021, 5060022, 5070022, 5070021
893, 5060022, 5060023, 5070023, 5070022
894, 5060023, 5060024, 5070024, 5070023
895, 5060024, 5060025, 5070025, 5070024
896, 5060025, 5060026, 5070026, 5070025
897, 5060026, 5060027, 5070027, 5070026
898, 5060027, 5060028, 5070028, 5070027
899, 5060028, 5060029, 5070029, 5070028
900, 5060029, 5060030, 5070030, 5070029
901, 5060030, 5060031, 5070031, 5070030
902, 5060031, 5060032, 5070032, 5070031
903, 5060032, 5060033, 5070033, 5070032
904, 5060033, 5060034, 5070034, 5070033
905, 5060034, 5060035, 5070035, 5070034
906, 5060035, 5060036, 5070036, 5070035
907, 5060036, 5060037, 5070037, 5070036
908, 5060037, 5060038, 5070038, 5070037
909, 5060038, 5060039, 5070039, 5070038
910, 5060039, 5060040, 5070040, 5070039
911, 5060040, 5060041, 5070041, 5070040
912, 5060041, 5060042, 5070042, 5070041
913, 5060042, 5060043, 5070043, 5070042
914, 5060043, 5060044, 5070044, 5070043
915, 5060044, 5060045, 5070045, 5070044
916, 5070000, 5070001, 5080001, 5080000
917, 5070001, 5070002, 5080002, 5080001
918, 5070002, 5070003, 5080003, 5080002
919, 5070003, 5070004, 5080004, 5080003
920, 5070004, 5070005, 5080005, 5080004
921, 5070005, 5070006, 5080006, 5080005
922, 5070006, 5070007, 5080007, 5080006
923, 5070007, 5070008, 5080008, 5080007
924, 5070008, 5070009, 5080009, 5080008
925, 5070009, 5070010, 5080010, 5080009
926, 5070010, 5070011, 5080011, 5080010
927, 5070011, 5070012, 5080012, 5080011
928, 5070012, 5070013, 5080013, 5080012
929, 5070013, 5070014, 5080014, 5080013
930, 5070014, 5070015, 5080015, 5080014
931, 5070015, 5070016, 5080016, 5080015
932, 5070016, 5070017, 5080017, 5080016
933, 5070017, 5070018, 5080018, 5080017
934, 5070018, 5070019, 5080019, 5080018
935, 5070019, 5070020, 5080020, 5080019
936, 5070020, 5070021, 5080021, 5080020
937, 5070021, 5070022, 5080022, 5080021
938, 5070022, 5070023, 5080023, 5080022
939, 5070023, 5070024, 5080024, 5080023
940, 5070024, 5070025, 5080025, 5080024
941, 5070025, 5070026, 5080026, 5080025
942, 5070026, 5070027, 5080027, 5080026
943, 5070027, 5070028, 5080028, 5080027
944, 5070028, 5070029, 5080029, 5080028
945, 5070029, 5070030, 5080030, 5080029
946, 5070030, 5070031, 5080031, 5080030
947, 5070031, 5070032, 5080032, 5080031
948, 5070032, 5070033, 5080033, 5080032
949, 5070033, 5070034, 5080034, 5080033
950, 5070034, 5070035, 5080035, 5080034
951, 5070035, 5070036, 5080036, 5080035
952, 5070036, 5070037, 5080037, 5080036
953, 5070037, 5070038, 5080038, 5080037
954, 5070038, 5070039, 5080039, 5080038
955, 5070039, 5070040, 5080040, 5080039
956, 5070040, 5070041, 5080041, 5080040
957, 5070041, 5070042, 5080042, 5080041
958, 5070042, 5070043, 5080043, 5080042
959, 5070043, 5070044, 5080044, 5080043
960, 5070044, 5070045, 5080045, 5080044
961, 5080000, 5080001, 5090001, 5090000
962, 5080001, 5080002, 5090002, 5090001
963, 5080002, 5080003, 5090003, 5090002
964, 5080003, 5080004, 5090004, 5090003
965, 5080004, 5080005, 5090005, 5090004
966, 5080005, 5080006, 5090006, 5090005
967, 5080006, 5080007, 5090007, 5090006
968, 5080007, 5080008, 5090008, 5090007
969, 5080008, 5080009, 5090009, 5090008
970, 5080009, 5080010, 5090010, 5090009
971, 5080010, 5080011, 5090011, 5090010
972, 5080011, 5080012, 5090012, 5090011
973, 5080012, 5080013, 5090013, 5090012
974, 5080013, 5080014, 5090014, 5090013
975, 5080014, 5080015, 5090015, 5090014
976, 5080015, 5080016, 5090016, 5090015
977, 5080016, 5080017, 5090017, 5090016
978, 5080017, 5080018, 5090018, 5090017
979, 5080018, 5080019, 5090019, 5090018
980, 5080019, 5080020, 5090020, 5090019
981, 5080020, 5080021, 5090021, 5090020
982, 5080021, 5080022, 5090022, 5090021
983, 5080022, 5080023, 5090023, 5090022
984, 5080023, 5080024, 5090024, 5090023
985, 5080024, 5080025, 5090025, 5090024
986, 5080025, 5080026, 5090026, 5090025
987, 5080026, 5080027, 5090027, 5090026
988, 5080027, 5080028, 5090028, 5090027
989, 5080028, 5080029, 5090029, 5090028
990, 5080029, 5080030, 5090030, 5090029
991, 5080030, 5080031, 5090031, 5090030
992, 5080031, 5080032, 5090032, 5090031
993, 5080032, 5080033, 5090033, 5090032
994, 5080033, 5080034, 5090034, 5090033
995, 5080034, 5080035, 5090035, 5090034
996, 5080035, 5080036, 5090036, 5090035
997, 5080036, 5080037, 5090037, 5090036
998, 5080037, 5080038, 5090038, 5090037
999, 5080038, 5080039, 5090039, 5090038
1000, 5080039, 5080040, 5090040, 5090039
1001, 5080040, 5080041, 5090041, 5090040
1002, 5080041, 5080042, 5090042, 5090041
1003, 5080042, 5080043, 5090043, 5090042
1004, 5080043, 5080044, 5090044, 5090043
1005, 5080044, 5080045, 5090045, 5090044
1006, 5090000, 5090001, 5100001, 5100000
1007, 5090001, 5090002, 5100002, 5100001
1008, 5090002, 5090003, 5100003, 5100002
1009, 5090003, 5090004, 5100004, 5100003
1010, 5090004, 5090005, 5100005, 5100004
1011, 5090005, 5090006, 5100006, 5100005
1012, 5090006, 5090007, 5100007, 5100006
1013, 5090007, 5090008, 5100008, 5100007
1014, 5090008, 5090009, 5100009, 5100008
1015, 5090009, 5090010, 5100010, 5100009
1016, 5090010, 5090011, 5100011, 5100010
1017, 5090011, 5090012, 5100012, 5100011
1018, 5090012, 5090013, 5100013, 5100012
1019, 5090013, 5090014, 5100014, 5100013
1020, 5090014, 5090015, 5100015, 5100014
1021, 5090015, 5090016, 5100016, 5100015
1022, 5090016, 5090017, 5100017, 5100016
1023, 5090017, 5090018, 5100018, 5100017
1024, 5090018, 5090019, 5100019, 5100018
1025, 5090019, 5090020, 5100020, 5100019
1026, 5090020, 5090021, 5100021, 5100020
1027, 5090021, 5090022, 5100022, 5100021
1028, 5090022, 5090023, 5100023, 5100022
1029, 5090023, 5090024, 5100024, 5100023
1030, 5090024, 5090025, 5100025, 5100024
1031, 5090025, 5090026, 5100026, 5100025
1032, 5090026, 5090027, 5100027, 5100026
1033, 5090027, 5090028, 5100028, 5100027
1034, 5090028, 5090029, 5100029, 5100028
1035, 5090029, 5090030, 5100030, 5100029
1036, 5090030, 5090031, 5100031, 5100030
1037, 5090031, 5090032, 5100032, 5100031
1038, 5090032, 5090033, 5100033, 5100032
1039, 5090033, 5090034, 5100034, 5100033
1040, 5090034, 5090035, 5100035, 5100034
1041, 5090035, 5090036, 5100036, 5100035
1042, 5090036, 5090037, 5100037, 5100036
1043, 5090037, 5090038, 5100038, 5100037
1044, 5090038, 5090039, 5100039, 5100038
1045, 5090039, 5090040, 5100040, 5100039
1046, 5090040, 5090041, 5100041, 5100040
1047, 5090041, 5090042, 5100042, 5100041
1048, 5090042, 5090043, 5100043, 5100042
1049, 5090043, 5090044, 5100044, 5100043
1050, 5090044, 5090045, 5100045, 5100044
1051, 5100000, 5100001, 5110001, 5110000
1052, 5100001, 5100002, 5110002, 5110001
1053, 5100002, 5100003, 5110003, 5110002
1054, 5100003, 5100004, 5110004, 5110003
1055, 5100004, 5100005, 5110005, 5110004
1056, 5100005, 5100006, 5110006, 5110005
1057, 5100006, 5100007, 5110007, 5110006
1058, 5100007, 5100008, 5110008, 5110007
1059, 5100008, 5100009, 5110009, 5110008
1060, 5100009, 5100010, 5110010, 5110009
1061, 5100010, 5100011, 5110011, 5110010
1062, 5100011, 5100012, 5110012, 5110011
1063, 5100012, 5100013, 5110013, 5110012
1064, 5100013, 5100014, 5110014, 5110013
1065, 5100014, 5100015, 5110015, 5110014
1066, 5100015, 5100016, 5110016, 5110015
1067, 5100016, 5100017, 5110017, 5110016
1068, 5100017, 5100018, 5110018, 5110017
1069, 5100018, 5100019, 5110019, 5110018
1070, 5100019, 5100020, 5110020, 5110019
1071, 5100020, 5100021, 5110021, 5110020
1072, 5100021, 5100022, 5110022, 5110021
1073, 5100022, 5100023, 5110023, 5110022
1074, 5100023, 5100024, 5110024, 5110023
1075, 5100024, 5100025, 5110025, 5110024
1076, 5100025, 5100026, 5110026, 5110025
1077, 5100026, 5100027, 5110027, 5110026
1078, 5100027, 5100028, 5110028, 5110027
1079, 5100028, 5100029, 5110029, 5110028
1080, 5100029, 5100030, 5110030, 5110029
1081, 5100030, 5100031, 5110031, 5110030
1082, 5100031, 5100032, 5110032, 5110031
1083, 5100032, 5100033, 5110033, 5110032
1084, 5100033, 5100034, 5110034, 5110033
1085, 5100034, 5100035, 5110035, 5110034
1086, 5100035, 5100036, 5110036, 5110035
1087, 5100036, 5100037, 5110037, 5110036
1088, 5100037, 5100038, 5110038, 5110037
1089, 5100038, 5100039, 5110039, 5110038
1090, 5100039, 5100040, 5110040, 5110039
1091, 5100040, 5100041, 5110041, 5110040
1092, 5100041, 5100042, 5110042, 5110041
1093, 5100042, 5100043, 5110043, 5110042
1094, 5100043, 5100044, 5110044, 5110043
1095, 5100044, 5100045, 5110045, 5110044
1096, 5110000, 5110001, 5120001, 5120000
1097, 5110001, 5110002, 5120002, 5120001
1098, 5110002, 5110003, 5120003, 5120002
1099, 5110003, 5110004, 5120004, 5120003
1100, 5110004, 5110005, 5120005, 5120004
1101, 5110005, 5110006, 5120006, 5120005
1102, 5110006, 5110007, 5120007, 5120006
1103, 5110007, 5110008, 5120008, 5120007
1104, 5110008, 5110009, 5120009, 5120008
1105, 5110009, 5110010, 5120010, 5120009
1106, 5110010, 5110011, 5120011, 5120010
1107, 5110011, 5110012, 5120012, 5120011
1108, 5110012, 5110013, 5120013, 5120012
1109, 5110013, 5110014, 5120014, 5120013
1110, 5110014, 5110015, 5120015, 5120014
1111, 5110015, 5110016, 5120016, 5120015
1112, 5110016, 5110017, 5120017, 5120016
1113, 5110017, 5110018, 5120018, 5120017
1114, 5110018, 5110019, 5120019, 5120018
1115, 5110019, 5110020, 5120020, 5120019
1116, 5110020, 5110021, 5120021, 5120020
1117, 5110021, 5110022, 5120022, 5120021
1118, 5110022, 5110023, 5120023, 5120022
1119, 5110023, 5110024, 5120024, 5120023
1120, 5110024, 5110025, 5120025, 5120024
1121, 5110025, 5110026, 5120026, 5120025
1122, 5110026, 5110027, 5120027, 5120026
1123, 5110027, 5110028, 5120028, 5120027
1124, 5110028, 5110029, 5120029, 5120028
1125, 5110029, 5110030, 5120030, 5120029
1126, 5110030, 5110031, 5120031, 5120030
1127, 5110031, 5110032, 5120032, 5120031
1128, 5110032, 5110033, 5120033, 5120032
1129, 5110033, 5110034, 5120034, 5120033
1130, 5110034, 5110035, 5120035, 5120034
1131, 5110035, 5110036, 5120036, 5120035
1132, 5110036, 5110037, 5120037, 5120036
1133, 5110037, 5110038, 5120038, 5120037
1134, 5110038, 5110039, 5120039, 5120038
1135, 5110039, 5110040, 5120040, 5120039
1136, 5110040, 5110041, 5120041, 5120040
1137, 5110041, 5110042, 5120042, 5120041
1138, 5110042, 5110043, 5120043, 5120042
1139, 5110043, 5110044, 5120044, 5120043
1140, 5110044, 5110045, 5120045, 5120044
1141, 5120000, 5120001, 5130001, 5130000
1142, 5120001, 5120002, 5130002, 5130001
1143, 5120002, 5120003, 5130003, 5130002
1144, 5120003, 5120004, 5130004, 5130003
1145, 5120004, 5120005, 5130005, 5130004
1146, 5120005, 5120006, 5130006, 5130005
1147, 5120006, 5120007, 5130007, 5130006
1148, 5120007, 5120008, 5130008, 5130007
1149, 5120008, 5120009, 5130009, 5130008
1150, 5120009, 5120010, 5130010, 5130009
1151, 5120010, 5120011, 5130011, 5130010
1152, 5120011, 5120012, 5130012, 5130011
1153, 5120012, 5120013, 5130013, 5130012
1154, 5120013, 5120014, 5130014, 5130013
1155, 5120014, 5120015, 5130015, 5130014
1156, 5120015, 5120016, 5130016, 5130015
1157, 5120016, 5120017, 5130017, 5130016
1158, 5120017, 5120018, 5130018, 5130017
1159, 5120018, 5120019, 5130019, 5130018
1160, 5120019, 5120020, 5130020, 5130019
1161, 5120020, 5120021, 5130021, 5130020
1162, 5120021, 5120022, 5130022, 5130021
1163, 5120022, 5120023, 5130023, 5130022
1164, 5120023, 5120024, 5130024, 5130023
1165, 5120024, 5120025, 5130025, 5130024
1166, 5120025, 5120026, 5130026, 5130025
1167, 5120026, 5120027, 5130027, 5130026
1168, 5120027, 5120028, 5130028, 5130027
1169, 5120028, 5120029, 5130029, 5130028
1170, 5120029, 5120030, 5130030, 5130029
1171, 5120030, 5120031, 5130031, 5130030
1172, 5120031, 5120032, 5130032, 5130031
1173, 5120032, 5120033, 5130033, 5130032
1174, 5120033, 5120034, 5130034, 5130033
1175, 5120034, 5120035, 5130035, 5130034
1176, 5120035, 5120036, 5130036, 5130035
1177, 5120036, 5120037, 5130037, 5130036
1178, 5120037, 5120038, 5130038, 5130037
1179, 5120038, 5120039, 5130039, 5130038
1180, 5120039, 5120040, 5130040, 5130039
1181, 5120040, 5120041, 5130041, 5130040
1182, 5120041, 5120042, 5130042, 5130041
1183, 5120042, 5120043, 5130043, 5130042
1184, 5120043, 5120044, 5130044, 5130043
1185, 5120044, 5120045, 5130045, 5130044
1186, 5130000, 5130001, 5140001, 5140000
1187, 5130001, 5130002, 5140002, 5140001
1188, 5130002, 5130003, 5140003, 5140002
1189, 5130003, 5130004, 5140004, 5140003
1190, 5130004, 5130005, 5140005, 5140004
1191, 5130005, 5130006, 5140006, 5140005
1192, 5130006, 5130007, 5140007, 5140006
1193, 5130007, 5130008, 5140008, 5140007
1194, 5130008, 5130009, 5140009, 5140008
1195, 5130009, 5130010, 5140010, 5140009
1196, 5130010, 5130011, 5140011, 5140010
1197, 5130011, 5130012, 5140012, 5140011
1198, 5130012, 5130013, 5140013, 5140012
1199, 5130013, 5130014, 5140014, 5140013
1200, 5130014, 5130015, 5140015, 5140014
1201, 5130015, 5130016, 5140016, 5140015
1202, 5130016, 5130017, 5140017, 5140016
1203, 5130017, 5130018, 5140018, 5140017
1204, 5130018, 5130019, 5140019, 5140018
1205, 5130019, 5130020, 5140020, 5140019
1206, 5130020, 5130021, 5140021, 5140020
1207, 5130021, 5130022, 5140022, 5140021
1208, 5130022, 5130023, 5140023, 5140022
1209, 5130023, 5130024, 5140024, 5140023
1210, 5130024, 5130025, 5140025, 5140024
1211, 5130025, 5130026, 5140026, 5140025
1212, 5130026, 5130027, 5140027, 5140026
1213, 5130027, 5130028, 5140028, 5140027
1214, 5130028, 5130029, 5140029, 5140028
1215, 5130029, 5130030, 5140030, 5140029
1216, 5130030, 5130031, 5140031, 5140030
1217, 5130031, 5130032, 5140032, 5140031
1218, 5130032, 5130033, 5140033, 5140032
1219, 5130033, 5130034, 5140034, 5140033
1220, 5130034, 5130035, 5140035, 5140034
1221, 5130035, 5130036, 5140036, 5140035
1222, 5130036, 5130037, 5140037, 5140036
1223, 5130037, 5130038, 5140038, 5140037
1224, 5130038, 5130039, 5140039, 5140038
1225, 5130039, 5130040, 5140040, 5140039
1226, 5130040, 5130041, 5140041, 5140040
1227, 5130041, 5130042, 5140042, 5140041
1228, 5130042, 5130043, 5140043, 5140042
1229, 5130043, 5130044, 5140044, 5140043
1230, 5130044, 5130045, 5140045, 5140044
1231, 5140000, 5140001, 5150001, 5150000
1232, 5140001, 5140002, 5150002, 5150001
1233, 5140002, 5140003, 5150003, 5150002
1234, 5140003, 5140004, 5150004, 5150003
1235, 5140004, 5140005, 5150005, 5150004
1236, 5140005, 5140006, 5150006, 5150005
1237, 5140006, 5140007, 5150007, 5150006
1238, 5140007, 5140008, 5150008, 5150007
1239, 5140008, 5140009, 5150009, 5150008
1240, 5140009, 5140010, 5150010, 5150009
1241, 5140010, 5140011, 5150011, 5150010
1242, 5140011, 5140012, 5150012, 5150011
1243, 5140012, 5140013, 5150013, 5150012
1244, 5140013, 5140014, 5150014, 5150013
1245, 5140014, 5140015, 5150015, 5150014
1246, 5140015, 5140016, 5150016, 5150015
1247, 5140016, 5140017, 5150017, 5150016
1248, 5140017, 5140018, 5150018, 5150017
1249, 5140018, 5140019, 5150019, 5150018
1250, 5140019, 5140020, 5150020, 5150019
1251, 5140020, 5140021, 5150021, 5150020
1252, 5140021, 5140022, 5150022, 5150021
1253, 5140022, 5140023, 5150023, 5150022
1254, 5140023, 5140024, 5150024, 5150023
1255, 5140024, 5140025, 5150025, 5150024
1256, 5140025, 5140026, 5150026, 5150025
1257, 5140026, 5140027, 5150027, 5150026
1258, 5140027, 5140028, 5150028, 5150027
1259, 5140028, 5140029, 5150029, 5150028
1260, 5140029, 5140030, 5150030, 5150029
1261, 5140030, 5140031, 5150031, 5150030
1262, 5140031, 5140032, 5150032, 5150031
1263, 5140032, 5140033, 5150033, 5150032
1264, 5140033, 5140034, 5150034, 5150033
1265, 5140034, 5140035, 5150035, 5150034
1266, 5140035, 5140036, 5150036, 5150035
1267, 5140036, 5140037, 5150037, 5150036
1268, 5140037, 5140038, 5150038, 5150037
1269, 5140038, 5140039, 5150039, 5150038
1270, 5140039, 5140040, 5150040, 5150039
1271, 5140040, 5140041, 5150041, 5150040
1272, 5140041, 5140042, 5150042, 5150041
1273, 5140042, 5140043, 5150043, 5150042
1274, 5140043, 5140044, 5150044, 5150043
1275, 5140044, 5140045, 5150045, 5150044
1276, 5150000, 5150001, 5160001, 5160000
1277, 5150001, 5150002, 5160002, 5160001
1278, 5150002, 5150003, 5160003, 5160002
1279, 5150003, 5150004, 5160004, 5160003
1280, 5150004, 5150005, 5160005, 5160004
1281, 5150005, 5150006, 5160006, 5160005
1282, 5150006, 5150007, 5160007, 5160006
1283, 5150007, 5150008, 5160008, 5160007
1284, 5150008, 5150009, 5160009, 5160008
1285, 5150009, 5150010, 5160010, 5160009
1286, 5150010, 5150011, 5160011, 5160010
1287, 5150011, 5150012, 5160012, 5160011
1288, 5150012, 5150013, 5160013, 5160012
1289, 5150013, 5150014, 5160014, 5160013
1290, 5150014, 5150015, 5160015, 5160014
1291, 5150015, 5150016, 5160016, 5160015
1292, 5150016, 5150017, 5160017, 5160016
1293, 5150017, 5150018, 5160018, 5160017
1294, 5150018, 5150019, 5160019, 5160018
1295, 5150019, 5150020, 5160020, 5160019
1296, 5150020, 5150021, 5160021, 5160020
1297, 5150021, 5150022, 5160022, 5160021
1298, 5150022, 5150023, 5160023, 5160022
1299, 5150023, 5150024, 5160024, 5160023
1300, 5150024, 5150025, 5160025, 5160024
1301, 5150025, 5150026, 5160026, 5160025
1302, 5150026, 5150027, 5160027, 5160026
1303, 5150027, 5150028, 5160028, 5160027
1304, 5150028, 5150029, 5160029, 5160028
1305, 5150029, 5150030, 5160030, 5160029
1306, 5150030, 5150031, 5160031, 5160030
1307, 5150031, 5150032, 5160032, 5160031
1308, 5150032, 5150033, 5160033, 5160032
1309, 5150033, 5150034, 5160034, 5160033
1310, 5150034, 5150035, 5160035, 5160034
1311, 5150035, 5150036, 5160036, 5160035
1312, 5150036, 5150037, 5160037, 5160036
1313, 5150037, 5150038, 5160038, 5160037
1314, 5150038, 5150039, 5160039, 5160038
1315, 5150039, 5150040, 5160040, 5160039
1316, 5150040, 5150041, 5160041, 5160040
1317, 5150041, 5150042, 5160042, 5160041
1318, 5150042, 5150043, 5160043, 5160042
1319, 5150043, 5150044, 5160044, 5160043
1320, 5150044, 5150045, 5160045, 5160044
1321, 5160000, 5160001, 5170001, 5170000
1322, 5160001, 5160002, 5170002, 5170001
1323, 5160002, 5160003, 5170003, 5170002
1324, 5160003, 5160004, 5170004, 5170003
1325, 5160004, 5160005, 5170005, 5170004
1326, 5160005, 5160006, 5170006, 5170005
1327, 5160006, 5160007, 5170007, 5170006
1328, 5160007, 5160008, 5170008, 5170007
1329, 5160008, 5160009, 5170009, 5170008
1330, 5160009, 5160010, 5170010, 5170009
1331, 5160010, 5160011, 5170011, 5170010
1332, 5160011, 5160012, 5170012, 5170011
1333, 5160012, 5160013, 5170013, 5170012
1334, 5160013, 5160014, 5170014, 5170013
1335, 5160014, 5160015, 5170015, 5170014
1336, 5160015, 5160016, 5170016, 5170015
1337, 5160016, 5160017, 5170017, 5170016
1338, 5160017, 5160018, 5170018, 5170017
1339, 5160018, 5160019, 5170019, 5170018
1340, 5160019, 5160020, 5170020, 5170019
1341, 5160020, 5160021, 5170021, 5170020
1342, 5160021, 5160022, 5170022, 5170021
1343, 5160022, 5160023, 5170023, 5170022
1344, 5160023, 5160024, 5170024, 5170023
1345, 5160024, 5160025, 5170025, 5170024
1346, 5160025, 5160026, 5170026, 5170025
1347, 5160026, 5160027, 5170027, 5170026
1348, 5160027, 5160028, 5170028, 5170027
1349, 5160028, 5160029, 5170029, 5170028
1350, 5160029, 5160030, 5170030, 5170029
1351, 5160030, 5160031, 5170031, 5170030
1352, 5160031, 5160032, 5170032, 5170031
1353, 5160032, 5160033, 5170033, 5170032
1354, 5160033, 5160034, 5170034, 5170033
1355, 5160034, 5160035, 5170035, 5170034
1356, 5160035, 5160036, 5170036, 5170035
1357, 5160036, 5160037, 5170037, 5170036
1358, 5160037, 5160038, 5170038, 5170037
1359, 5160038, 5160039, 5170039, 5170038
1360, 5160039, 5160040, 5170040, 5170039
1361, 5160040, 5160041, 5170041, 5170040
1362, 5160041, 5160042, 5170042, 5170041
1363, 5160042, 5160043, 5170043, 5170042
1364, 5160043, 5160044, 5170044, 5170043
1365, 5160044, 5160045, 5170045, 5170044
1366, 5170000, 5170001, 5180001, 5180000
1367, 5170001, 5170002, 5180002, 5180001
1368, 5170002, 5170003, 5180003, 5180002
1369, 5170003, 5170004, 5180004, 5180003
1370, 5170004, 5170005, 5180005, 5180004
1371, 5170005, 5170006, 5180006, 5180005
1372, 5170006, 5170007, 5180007, 5180006
1373, 5170007, 5170008, 5180008, 5180007
1374, 5170008, 5170009, 5180009, 5180008
1375, 5170009, 5170010, 5180010, 5180009
1376, 5170010, 5170011, 5180011, 5180010
1377, 5170011, 5170012, 5180012, 5180011
1378, 5170012, 5170013, 5180013, 5180012
1379, 5170013, 5170014, 5180014, 5180013
1380, 5170014, 5170015, 5180015, 5180014
1381, 5170015, 5170016, 5180016, 5180015
1382, 5170016, 5170017, 5180017, 5180016
1383, 5170017, 5170018, 5180018, 5180017
1384, 5170018, 5170019, 5180019, 5180018
1385, 5170019, 5170020, 5180020, 5180019
1386, 5170020, 5170021, 5180021, 5180020
1387, 5170021, 5170022, 5180022, 5180021
1388, 5170022, 5170023, 5180023, 5180022
1389, 5170023, 5170024, 5180024, 5180023
1390, 5170024, 5170025, 5180025, 5180024
1391, 5170025, 5170026, 5180026, 5180025
1392, 5170026, 5170027, 5180027, 5180026
1393, 5170027, 5170028, 5180028, 5180027
1394, 5170028, 5170029, 5180029, 5180028
1395, 5170029, 5170030, 5180030, 5180029
1396, 5170030, 5170031, 5180031, 5180030
1397, 5170031, 5170032, 5180032, 5180031
1398, 5170032, 5170033, 5180033, 5180032
1399, 5170033, 5170034, 5180034, 5180033
1400, 5170034, 5170035, 5180035, 5180034
1401, 5170035, 5170036, 5180036, 5180035
1402, 5170036, 5170037, 5180037, 5180036
1403, 5170037, 5170038, 5180038, 5180037
1404, 5170038, 5170039, 5180039, 5180038
1405, 5170039, 5170040, 5180040, 5180039
1406, 5170040, 5170041, 5180041, 5180040
1407, 5170041, 5170042, 5180042, 5180041
1408, 5170042, 5170043, 5180043, 5180042
1409, 5170043, 5170044, 5180044, 5180043
1410, 5170044, 5170045, 5180045, 5180044
1411, 5180000, 5180001, 5190001, 5190000
1412, 5180001, 5180002, 5190002, 5190001
1413, 5180002, 5180003, 5190003, 5190002
1414, 5180003, 5180004, 5190004, 5190003
1415, 5180004, 5180005, 5190005, 5190004
1416, 5180005, 5180006, 5190006, 5190005
1417, 5180006, 5180007, 5190007, 5190006
1418, 5180007, 5180008, 5190008, 5190007
1419, 5180008, 5180009, 5190009, 5190008
1420, 5180009, 5180010, 5190010, 5190009
1421, 5180010, 5180011, 5190011, 5190010
1422, 5180011, 5180012, 5190012, 5190011
1423, 5180012, 5180013, 5190013, 5190012
1424, 5180013, 5180014, 5190014, 5190013
1425, 5180014, 5180015, 5190015, 5190014
1426, 5180015, 5180016, 5190016, 5190015
1427, 5180016, 5180017, 5190017, 5190016
1428, 5180017, 5180018, 5190018, 5190017
1429, 5180018, 5180019, 5190019, 5190018
1430, 5180019, 5180020, 5190020, 5190019
1431, 5180020, 5180021, 5190021, 5190020
1432, 5180021, 5180022, 5190022, 5190021
1433, 5180022, 5180023, 5190023, 5190022
1434, 5180023, 5180024, 5190024, 5190023
1435, 5180024, 5180025, 5190025, 5190024
1436, 5180025, 5180026, 5190026, 5190025
1437, 5180026, 5180027, 5190027, 5190026
1438, 5180027, 5180028, 5190028, 5190027
1439, 5180028, 5180029, 5190029, 5190028
1440, 5180029, 5180030, 5190030, 5190029
1441, 5180030, 5180031, 5190031, 5190030
1442, 5180031, 5180032, 5190032, 5190031
1443, 5180032, 5180033, 5190033, 5190032
1444, 5180033, 5180034, 5190034, 5190033
1445, 5180034, 5180035, 5190035, 5190034
1446, 5180035, 5180036, 5190036, 5190035
1447, 5180036, 5180037, 5190037, 5190036
1448, 5180037, 5180038, 5190038, 5190037
1449, 5180038, 5180039, 5190039, 5190038
1450, 5180039, 5180040, 5190040, 5190039
1451, 5180040, 5180041, 5190041, 5190040
1452, 5180041, 5180042, 5190042, 5190041
1453, 5180042, 5180043, 5190043, 5190042
1454, 5180043, 5180044, 5190044, 5190043
1455, 5180044, 5180045, 5190045, 5190044
1456, 5190000, 5190001, 5200001, 5200000
1457, 5190001, 5190002, 5200002, 5200001
1458, 5190002, 5190003, 5200003, 5200002
1459, 5190003, 5190004, 5200004, 5200003
1460, 5190004, 5190005, 5200005, 5200004
1461, 5190005, 5190006, 5200006, 5200005
1462, 5190006, 5190007, 5200007, 5200006
1463, 5190007, 5190008, 5200008, 5200007
1464, 5190008, 5190009, 5200009, 5200008
1465, 5190009, 5190010, 5200010, 5200009
1466, 5190010, 5190011, 5200011, 5200010
1467, 5190011, 5190012, 5200012, 5200011
1468, 5190012, 5190013, 5200013, 5200012
1469, 5190013, 5190014, 5200014, 5200013
1470, 5190014, 5190015, 5200015, 5200014
1471, 5190015, 5190016, 5200016, 5200015
1472, 5190016, 5190017, 5200017, 5200016
1473, 5190017, 5190018, 5200018, 5200017
1474, 5190018, 5190019, 5200019, 5200018
1475, 5190019, 5190020, 5200020, 5200019
1476, 5190020, 5190021, 5200021, 5200020
1477, 5190021, 5190022, 5200022, 5200021
1478, 5190022, 5190023, 5200023, 5200022
1479, 5190023, 5190024, 5200024, 5200023
1480, 5190024, 5190025, 5200025, 5200024
1481, 5190025, 5190026, 5200026, 5200025
1482, 5190026, 5190027, 5200027, 5200026
1483, 5190027, 5190028, 5200028, 5200027
1484, 5190028, 5190029, 5200029, 5200028
1485, 5190029, 5190030, 5200030, 5200029
1486, 5190030, 5190031, 5200031, 5200030
1487, 5190031, 5190032, 5200032, 5200031
1488, 5190032, 5190033, 5200033, 5200032
1489, 5190033, 5190034, 5200034, 5200033
1490, 5190034, 5190035, 5200035, 5200034
1491, 5190035, 5190036, 5200036, 5200035
1492, 5190036, 5190037, 5200037, 5200036
1493, 5190037, 5190038, 5200038, 5200037
1494, 5190038, 5190039, 5200039, 5200038
1495, 5190039, 5190040, 5200040, 5200039
1496, 5190040, 5190041, 5200041, 5200040
1497, 5190041, 5190042, 5200042, 5200041
1498, 5190042, 5190043, 5200043, 5200042
1499, 5190043, 5190044, 5200044, 5200043
1500, 5190044, 5190045, 5200045, 5200044
1501, 5200000, 5200001, 5210001, 5210000
1502, 5200001, 5200002, 5210002, 5210001
1503, 5200002, 5200003, 5210003, 5210002
1504, 5200003, 5200004, 5210004, 5210003
1505, 5200004, 5200005, 5210005, 5210004
1506, 5200005, 5200006, 5210006, 5210005
1507, 5200006, 5200007, 5210007, 5210006
1508, 5200007, 5200008, 5210008, 5210007
1509, 5200008, 5200009, 5210009, 5210008
1510, 5200009, 5200010, 5210010, 5210009
1511, 5200010, 5200011, 5210011, 5210010
1512, 5200011, 5200012, 5210012, 5210011
1513, 5200012, 5200013, 5210013, 5210012
1514, 5200013, 5200014, 5210014, 5210013
1515, 5200014, 5200015, 5210015, 5210014
1516, 5200015, 5200016, 5210016, 5210015
1517, 5200016, 5200017, 5210017, 5210016
1518, 5200017, 5200018, 5210018, 5210017
1519, 5200018, 5200019, 5210019, 5210018
1520, 5200019, 5200020, 5210020, 5210019
1521, 5200020, 5200021, 5210021, 5210020
1522, 5200021, 5200022, 5210022, 5210021
1523, 5200022, 5200023, 5210023, 5210022
1524, 5200023, 5200024, 5210024, 5210023
1525, 5200024, 5200025, 5210025, 5210024
1526, 5200025, 5200026, 5210026, 5210025
1527, 5200026, 5200027, 5210027, 5210026
1528, 5200027, 5200028, 5210028, 5210027
1529, 5200028, 5200029, 5210029, 5210028
1530, 5200029, 5200030, 5210030, 5210029
1531, 5200030, 5200031, 5210031, 5210030
1532, 5200031, 5200032, 5210032, 5210031
1533, 5200032, 5200033, 5210033, 5210032
1534, 5200033, 5200034, 5210034, 5210033
1535, 5200034, 5200035, 5210035, 5210034
1536, 5200035, 5200036, 5210036, 5210035
1537, 5200036, 5200037, 5210037, 5210036
1538, 5200037, 5200038, 5210038, 5210037
1539, 5200038, 5200039, 5210039, 5210038
1540, 5200039, 5200040, 5210040, 5210039
1541, 5200040, 5200041, 5210041, 5210040
1542, 5200041, 5200042, 5210042, 5210041
1543, 5200042, 5200043, 5210043, 5210042
1544, 5200043, 5200044, 5210044, 5210043
1545, 5200044, 5200045, 5210045, 5210044
1546, 5210000, 5210001, 5220001, 5220000
1547, 5210001, 5210002, 5220002, 5220001
1548, 5210002, 5210003, 5220003, 5220002
1549, 5210003, 5210004, 5220004, 5220003
1550, 5210004, 5210005, 5220005, 5220004
1551, 5210005, 5210006, 5220006, 5220005
1552, 5210006, 5210007, 5220007, 5220006
1553, 5210007, 5210008, 5220008, 5220007
1554, 5210008, 5210009, 5220009, 5220008
1555, 5210009, 5210010, 5220010, 5220009
1556, 5210010, 5210011, 5220011, 5220010
1557, 5210011, 5210012, 5220012, 5220011
1558, 5210012, 5210013, 5220013, 5220012
1559, 5210013, 5210014, 5220014, 5220013
1560, 5210014, 5210015, 5220015, 5220014
1561, 5210015, 5210016, 5220016, 5220015
1562, 5210016, 5210017, 5220017, 5220016
1563, 5210017, 5210018, 5220018, 5220017
1564, 5210018, 5210019, 5220019, 5220018
1565, 5210019, 5210020, 5220020, 5220019
1566, 5210020, 5210021, 5220021, 5220020
1567, 5210021, 5210022, 5220022, 5220021
1568, 5210022, 5210023, 5220023, 5220022
1569, 5210023, 5210024, 5220024, 5220023
1570, 5210024, 5210025, 5220025, 5220024
1571, 5210025, 5210026, 5220026, 5220025
1572, 5210026, 5210027, 5220027, 5220026
1573, 5210027, 5210028, 5220028, 5220027
1574, 5210028, 5210029, 5220029, 5220028
1575, 5210029, 5210030, 5220030, 5220029
1576, 5210030, 5210031, 5220031, 5220030
1577, 5210031, 5210032, 5220032, 5220031
1578, 5210032, 5210033, 5220033, 5220032
1579, 5210033, 5210034, 5220034, 5220033
1580, 5210034, 5210035, 5220035, 5220034
1581, 5210035, 5210036, 5220036, 5220035
1582, 5210036, 5210037, 5220037, 5220036
1583, 5210037, 5210038, 5220038, 5220037
1584, 5210038, 5210039, 5220039, 5220038
1585, 5210039, 5210040, 5220040, 5220039
1586, 5210040, 5210041, 5220041, 5220040
1587, 5210041, 5210042, 5220042, 5220041
1588, 5210042, 5210043, 5220043, 5220042
1589, 5210043, 5210044, 5220044, 5220043
1590, 5210044, 5210045, 5220045, 5220044
1591, 5220000, 5220001, 5230001, 5230000
1592, 5220001, 5220002, 5230002, 5230001
1593, 5220002, 5220003, 5230003, 5230002
1594, 5220003, 5220004, 5230004, 5230003
1595, 5220004, 5220005, 5230005, 5230004
1596, 5220005, 5220006, 5230006, 5230005
1597, 5220006, 5220007, 5230007, 5230006
1598, 5220007, 5220008, 5230008, 5230007
1599, 5220008, 5220009, 5230009, 5230008
1600, 5220009, 5220010, 5230010, 5230009
1601, 5220010, 5220011, 5230011, 5230010
1602, 5220011, 5220012, 5230012, 5230011
1603, 5220012, 5220013, 5230013, 5230012
1604, 5220013, 5220014, 5230014, 5230013
1605, 5220014, 5220015, 5230015, 5230014
1606, 5220015, 5220016, 5230016, 5230015
1607, 5220016, 5220017, 5230017, 5230016
1608, 5220017, 5220018, 5230018, 5230017
1609, 5220018, 5220019, 5230019, 5230018
1610, 5220019, 5220020, 5230020, 5230019
1611, 5220020, 5220021, 5230021, 5230020
1612, 5220021, 5220022, 5230022, 5230021
1613, 5220022, 5220023, 5230023, 5230022
1614, 5220023, 5220024, 5230024, 5230023
1615, 5220024, 5220025, 5230025, 5230024
1616, 5220025, 5220026, 5230026, 5230025
1617, 5220026, 5220027, 5230027, 5230026
1618, 5220027, 5220028, 5230028, 5230027
1619, 5220028, 5220029, 5230029, 5230028
1620, 5220029, 5220030, 5230030, 5230029
1621, 5220030, 5220031, 5230031, 5230030
1622, 5220031, 5220032, 5230032, 5230031
1623, 5220032, 5220033, 5230033, 5230032
1624, 5220033, 5220034, 5230034, 5230033
1625, 5220034, 5220035, 5230035, 5230034
1626, 5220035, 5220036, 5230036, 5230035
1627, 5220036, 5220037, 5230037, 5230036
1628, 5220037, 5220038, 5230038, 5230037
1629, 5220038, 5220039, 5230039, 5230038
1630, 5220039, 5220040, 5230040, 5230039
1631, 5220040, 5220041, 5230041, 5230040
1632, 5220041, 5220042, 5230042, 5230041
1633, 5220042, 5220043, 5230043, 5230042
1634, 5220043, 5220044, 5230044, 5230043
1635, 5220044, 5220045, 5230045, 5230044
1636, 5230000, 5230001, 5240001, 5240000
1637, 5230001, 5230002, 5240002, 5240001
1638, 5230002, 5230003, 5240003, 5240002
1639, 5230003, 5230004, 5240004, 5240003
1640, 5230004, 5230005, 5240005, 5240004
1641, 5230005, 5230006, 5240006, 5240005
1642, 5230006, 5230007, 5240007, 5240006
1643, 5230007, 5230008, 5240008, 5240007
1644, 5230008, 5230009, 5240009, 5240008
1645, 5230009, 5230010, 5240010, 5240009
1646, 5230010, 5230011, 5240011, 5240010
1647, 5230011, 5230012, 5240012, 5240011
1648, 5230012, 5230013, 5240013, 5240012
1649, 5230013, 5230014, 5240014, 5240013
1650, 5230014, 5230015, 5240015, 5240014
1651, 5230015, 5230016, 5240016, 5240015
1652, 5230016, 5230017, 5240017, 5240016
1653, 5230017, 5230018, 5240018, 5240017
1654, 5230018, 5230019, 5240019, 5240018
1655, 5230019, 5230020, 5240020, 5240019
1656, 5230020, 5230021, 5240021, 5240020
1657, 5230021, 5230022, 5240022, 5240021
1658, 5230022, 5230023, 5240023, 5240022
1659, 5230023, 5230024, 5240024, 5240023
1660, 5230024, 5230025, 5240025, 5240024
1661, 5230025, 5230026, 5240026, 5240025
1662, 5230026, 5230027, 5240027, 5240026
1663, 5230027, 5230028, 5240028, 5240027
1664, 5230028, 5230029, 5240029, 5240028
1665, 5230029, 5230030, 5240030, 5240029
1666, 5230030, 5230031, 5240031, 5240030
1667, 5230031, 5230032, 5240032, 5240031
1668, 5230032, 5230033, 5240033, 5240032
1669, 5230033, 5230034, 5240034, 5240033
1670, 5230034, 5230035, 5240035, 5240034
1671, 5230035, 5230036, 5240036, 5240035
1672, 5230036, 5230037, 5240037, 5240036
1673, 5230037, 5230038, 5240038, 5240037
1674, 5230038, 5230039, 5240039, 5240038
1675, 5230039, 5230040, 5240040, 5240039
1676, 5230040, 5230041, 5240041, 5240040
1677, 5230041, 5230042, 5240042, 5240041
1678, 5230042, 5230043, 5240043, 5240042
1679, 5230043, 5230044, 5240044, 5240043
1680, 5230044, 5230045, 5240045, 5240044
1681, 5240000, 5240001, 5250001, 5250000
1682, 5240001, 5240002, 5250002, 5250001
1683, 5240002, 5240003, 5250003, 5250002
1684, 5240003, 5240004, 5250004, 5250003
1685, 5240004, 5240005, 5250005, 5250004
1686, 5240005, 5240006, 5250006, 5250005
1687, 5240006, 5240007, 5250007, 5250006
1688, 5240007, 5240008, 5250008, 5250007
1689, 5240008, 5240009, 5250009, 5250008
1690, 5240009, 5240010, 5250010, 5250009
1691, 5240010, 5240011, 5250011, 5250010
1692, 5240011, 5240012, 5250012, 5250011
1693, 5240012, 5240013, 5250013, 5250012
1694, 5240013, 5240014, 5250014, 5250013
1695, 5240014, 5240015, 5250015, 5250014
1696, 5240015, 5240016, 5250016, 5250015
1697, 5240016, 5240017, 5250017, 5250016
1698, 5240017, 5240018, 5250018, 5250017
1699, 5240018, 5240019, 5250019, 5250018
1700, 5240019, 5240020, 5250020, 5250019
1701, 5240020, 5240021, 5250021, 5250020
1702, 5240021, 5240022, 5250022, 5250021
1703, 5240022, 5240023, 5250023, 5250022
1704, 5240023, 5240024, 5250024, 5250023
1705, 5240024, 5240025, 5250025, 5250024
1706, 5240025, 5240026, 5250026, 5250025
1707, 5240026, 5240027, 5250027, 5250026
1708, 5240027, 5240028, 5250028, 5250027
1709, 5240028, 5240029, 5250029, 5250028
1710, 5240029, 5240030, 5250030, 5250029
1711, 5240030, 5240031, 5250031, 5250030
1712, 5240031, 5240032, 5250032, 5250031
1713, 5240032, 5240033, 5250033, 5250032
1714, 5240033, 5240034, 5250034, 5250033
1715, 5240034, 5240035, 5250035, 5250034
1716, 5240035, 5240036, 5250036, 5250035
1717, 5240036, 5240037, 5250037, 5250036
1718, 5240037, 5240038, 5250038, 5250037
1719, 5240038, 5240039, 5250039, 5250038
1720, 5240039, 5240040, 5250040, 5250039
1721, 5240040, 5240041, 5250041, 5250040
1722, 5240041, 5240042, 5250042, 5250041
1723, 5240042, 5240043, 5250043, 5250042
1724, 5240043, 5240044, 5250044, 5250043
1725, 5240044, 5240045, 5250045, 5250044
1726, 5250000, 5250001, 5260001, 5260000
1727, 5250001, 5250002, 5260002, 5260001
1728, 5250002, 5250003, 5260003, 5260002
1729, 5250003, 5250004, 5260004, 5260003
1730, 5250004, 5250005, 5260005, 5260004
1731, 5250005, 5250006, 5260006, 5260005
1732, 5250006, 5250007, 5260007, 5260006
1733, 5250007, 5250008, 5260008, 5260007
1734, 5250008, 5250009, 5260009, 5260008
1735, 5250009, 5250010, 5260010, 5260009
1736, 5250010, 5250011, 5260011, 5260010
1737, 5250011, 5250012, 5260012, 5260011
1738, 5250012, 5250013, 5260013, 5260012
1739, 5250013, 5250014, 5260014, 5260013
1740, 5250014, 5250015, 5260015, 5260014
1741, 5250015, 5250016, 5260016, 5260015
1742, 5250016, 5250017, 5260017, 5260016
1743, 5250017, 5250018, 5260018, 5260017
1744, 5250018, 5250019, 5260019, 5260018
1745, 5250019, 5250020, 5260020, 5260019
1746, 5250020, 5250021, 5260021, 5260020
1747, 5250021, 5250022, 5260022, 5260021
1748, 5250022, 5250023, 5260023, 5260022
1749, 5250023, 5250024, 5260024, 5260023
1750, 5250024, 5250025, 5260025, 5260024
1751, 5250025, 5250026, 5260026, 5260025
1752, 5250026, 5250027, 5260027, 5260026
1753, 5250027, 5250028, 5260028, 5260027
1754, 5250028, 5250029, 5260029, 5260028
1755, 5250029, 5250030, 5260030, 5260029
1756, 5250030, 5250031, 5260031, 5260030
1757, 5250031, 5250032, 5260032, 5260031
1758, 5250032, 5250033, 5260033, 5260032
1759, 5250033, 5250034, 5260034, 5260033
1760, 5250034, 5250035, 5260035, 5260034
1761, 5250035, 5250036, 5260036, 5260035
1762, 5250036, 5250037, 5260037, 5260036
1763, 5250037, 5250038, 5260038, 5260037
1764, 5250038, 5250039, 5260039, 5260038
1765, 5250039, 5250040, 5260040, 5260039
1766, 5250040, 5250041, 5260041, 5260040
1767, 5250041, 5250042, 5260042, 5260041
1768, 5250042, 5250043, 5260043, 5260042
1769, 5250043, 5250044, 5260044, 5260043
1770, 5250044, 5250045, 5260045, 5260044
1771, 5260000, 5260001, 5270001, 5270000
1772, 5260001, 5260002, 5270002, 5270001
1773, 5260002, 5260003, 5270003, 5270002
1774, 5260003, 5260004, 5270004, 5270003
1775, 5260004, 5260005, 5270005, 5270004
1776, 5260005, 5260006, 5270006, 5270005
1777, 5260006, 5260007, 5270007, 5270006
1778, 5260007, 5260008, 5270008, 5270007
1779, 5260008, 5260009, 5270009, 5270008
1780, 5260009, 5260010, 5270010, 5270009
1781, 5260010, 5260011, 5270011, 5270010
1782, 5260011, 5260012, 5270012, 5270011
1783, 5260012, 5260013, 5270013, 5270012
1784, 5260013, 5260014, 5270014, 5270013
1785, 5260014, 5260015, 5270015, 5270014
1786, 5260015, 5260016, 5270016, 5270015
1787, 5260016, 5260017, 5270017, 5270016
1788, 5260017, 5260018, 5270018, 5270017
1789, 5260018, 5260019, 5270019, 5270018
1790, 5260019, 5260020, 5270020, 5270019
1791, 5260020, 5260021, 5270021, 5270020
1792, 5260021, 5260022, 5270022, 5270021
1793, 5260022, 5260023, 5270023, 5270022
1794, 5260023, 5260024, 5270024, 5270023
1795, 5260024, 5260025, 5270025, 5270024
1796, 5260025, 5260026, 5270026, 5270025
1797, 5260026, 5260027, 5270027, 5270026
1798, 5260027, 5260028, 5270028, 5270027
1799, 5260028, 5260029, 5270029, 5270028
1800, 5260029, 5260030, 5270030, 5270029
1801, 5260030, 5260031, 5270031, 5270030
1802, 5260031, 5260032, 5270032, 5270031
1803, 5260032, 5260033, 5270033, 5270032
1804, 5260033, 5260034, 5270034, 5270033
1805, 5260034, 5260035, 5270035, 5270034
1806, 5260035, 5260036, 5270036, 5270035
1807, 5260036, 5260037, 5270037, 5270036
1808, 5260037, 5260038, 5270038, 5270037
1809, 5260038, 5260039, 5270039, 5270038
1810, 5260039, 5260040, 5270040, 5270039
1811, 5260040, 5260041, 5270041, 5270040
1812, 5260041, 5260042, 5270042, 5270041
1813, 5260042, 5260043, 5270043, 5270042
1814, 5260043, 5260044, 5270044, 5270043
1815, 5260044, 5260045, 5270045, 5270044
1816, 5270000, 5270001, 5280001, 5280000
1817, 5270001, 5270002, 5280002, 5280001
1818, 5270002, 5270003, 5280003, 5280002
1819, 5270003, 5270004, 5280004, 5280003
1820, 5270004, 5270005, 5280005, 5280004
1821, 5270005, 5270006, 5280006, 5280005
1822, 5270006, 5270007, 5280007, 5280006
1823, 5270007, 5270008, 5280008, 5280007
1824, 5270008, 5270009, 5280009, 5280008
1825, 5270009, 5270010, 5280010, 5280009
1826, 5270010, 5270011, 5280011, 5280010
1827, 5270011, 5270012, 5280012, 5280011
1828, 5270012, 5270013, 5280013, 5280012
1829, 5270013, 5270014, 5280014, 5280013
1830, 5270014, 5270015, 5280015, 5280014
1831, 5270015, 5270016, 5280016, 5280015
1832, 5270016, 5270017, 5280017, 5280016
1833, 5270017, 5270018, 5280018, 5280017
1834, 5270018, 5270019, 5280019, 5280018
1835, 5270019, 5270020, 5280020, 5280019
1836, 5270020, 5270021, 5280021, 5280020
1837, 5270021, 5270022, 5280022, 5280021
1838, 5270022, 5270023, 5280023, 5280022
1839, 5270023, 5270024, 5280024, 5280023
1840, 5270024, 5270025, 5280025, 5280024
1841, 5270025, 5270026, 5280026, 5280025
1842, 5270026, 5270027, 5280027, 5280026
1843, 5270027, 5270028, 5280028, 5280027
1844, 5270028, 5270029, 5280029, 5280028
1845, 5270029, 5270030, 5280030, 5280029
1846, 5270030, 5270031, 5280031, 5280030
1847, 5270031, 5270032, 5280032, 5280031
1848, 5270032, 5270033, 5280033, 5280032
1849, 5270033, 5270034, 5280034, 5280033
1850, 5270034, 5270035, 5280035, 5280034
1851, 5270035, 5270036, 5280036, 5280035
1852, 5270036, 5270037, 5280037, 5280036
1853, 5270037, 5270038, 5280038, 5280037
1854, 5270038, 5270039, 5280039, 5280038
1855, 5270039, 5270040, 5280040, 5280039
1856, 5270040, 5270041, 5280041, 5280040
1857, 5270041, 5270042, 5280042, 5280041
1858, 5270042, 5270043, 5280043, 5280042
1859, 5270043, 5270044, 5280044, 5280043
1860, 5270044, 5270045, 5280045, 5280044
1861, 5280000, 5280001, 5290001, 5290000
1862, 5280001, 5280002, 5290002, 5290001
1863, 5280002, 5280003, 5290003, 5290002
1864, 5280003, 5280004, 5290004, 5290003
1865, 5280004, 5280005, 5290005, 5290004
1866, 5280005, 5280006, 5290006, 5290005
1867, 5280006, 5280007, 5290007, 5290006
1868, 5280007, 5280008, 5290008, 5290007
1869, 5280008, 5280009, 5290009, 5290008
1870, 5280009, 5280010, 5290010, 5290009
1871, 5280010, 5280011, 5290011, 5290010
1872, 5280011, 5280012, 5290012, 5290011
1873, 5280012, 5280013, 5290013, 5290012
1874, 5280013, 5280014, 5290014, 5290013
1875, 5280014, 5280015, 5290015, 5290014
1876, 5280015, 5280016, 5290016, 5290015
1877, 5280016, 5280017, 5290017, 5290016
1878, 5280017, 5280018, 5290018, 5290017
1879, 5280018, 5280019, 5290019, 5290018
1880, 5280019, 5280020, 5290020, 5290019
1881, 5280020, 5280021, 5290021, 5290020
1882, 5280021, 5280022, 5290022, 5290021
1883, 5280022, 5280023, 5290023, 5290022
1884, 5280023, 5280024, 5290024, 5290023
1885, 5280024, 5280025, 5290025, 5290024
1886, 5280025, 5280026, 5290026, 5290025
1887, 5280026, 5280027, 5290027, 5290026
1888, 5280027, 5280028, 5290028, 5290027
1889, 5280028, 5280029, 5290029, 5290028
1890, 5280029, 5280030, 5290030, 5290029
1891, 5280030, 5280031, 5290031, 5290030
1892, 5280031, 5280032, 5290032, 5290031
1893, 5280032, 5280033, 5290033, 5290032
1894, 5280033, 5280034, 5290034, 5290033
1895, 5280034, 5280035, 5290035, 5290034
1896, 5280035, 5280036, 5290036, 5290035
1897, 5280036, 5280037, 5290037, 5290036
1898, 5280037, 5280038, 5290038, 5290037
1899, 5280038, 5280039, 5290039, 5290038
1900, 5280039, 5280040, 5290040, 5290039
1901, 5280040, 5280041, 5290041, 5290040
1902, 5280041, 5280042, 5290042, 5290041
1903, 5280042, 5280043, 5290043, 5290042
1904, 5280043, 5280044, 5290044, 5290043
1905, 5280044, 5280045, 5290045, 5290044
1906, 5290000, 5290001, 5300001, 5300000
1907, 5290001, 5290002, 5300002, 5300001
1908, 5290002, 5290003, 5300003, 5300002
1909, 5290003, 5290004, 5300004, 5300003
1910, 5290004, 5290005, 5300005, 5300004
1911, 5290005, 5290006, 5300006, 5300005
1912, 5290006, 5290007, 5300007, 5300006
1913, 5290007, 5290008, 5300008, 5300007
1914, 5290008, 5290009, 5300009, 5300008
1915, 5290009, 5290010, 5300010, 5300009
1916, 5290010, 5290011, 5300011, 5300010
1917, 5290011, 5290012, 5300012, 5300011
1918, 5290012, 5290013, 5300013, 5300012
1919, 5290013, 5290014, 5300014, 5300013
1920, 5290014, 5290015, 5300015, 5300014
1921, 5290015, 5290016, 5300016, 5300015
1922, 5290016, 5290017, 5300017, 5300016
1923, 5290017, 5290018, 5300018, 5300017
1924, 5290018, 5290019, 5300019, 5300018
1925, 5290019, 5290020, 5300020, 5300019
1926, 5290020, 5290021, 5300021, 5300020
1927, 5290021, 5290022, 5300022, 5300021
1928, 5290022, 5290023, 5300023, 5300022
1929, 5290023, 5290024, 5300024, 5300023
1930, 5290024, 5290025, 5300025, 5300024
1931, 5290025, 5290026, 5300026, 5300025
1932, 5290026, 5290027, 5300027, 5300026
1933, 5290027, 5290028, 5300028, 5300027
1934, 5290028, 5290029, 5300029, 5300028
1935, 5290029, 5290030, 5300030, 5300029
1936, 5290030, 5290031, 5300031, 5300030
1937, 5290031, 5290032, 5300032, 5300031
1938, 5290032, 5290033, 5300033, 5300032
1939, 5290033, 5290034, 5300034, 5300033
1940, 5290034, 5290035, 5300035, 5300034
1941, 5290035, 5290036, 5300036, 5300035
1942, 5290036, 5290037, 5300037, 5300036
1943, 5290037, 5290038, 5300038, 5300037
1944, 5290038, 5290039, 5300039, 5300038
1945, 5290039, 5290040, 5300040, 5300039
1946, 5290040, 5290041, 5300041, 5300040
1947, 5290041, 5290042, 5300042, 5300041
1948, 5290042, 5290043, 5300043, 5300042
1949, 5290043, 5290044, 5300044, 5300043
1950, 5290044, 5290045, 5300045, 5300044
1951, 5300000, 5300001, 5310001, 5310000
1952, 5300001, 5300002, 5310002, 5310001
1953, 5300002, 5300003, 5310003, 5310002
1954, 5300003, 5300004, 5310004, 5310003
1955, 5300004, 5300005, 5310005, 5310004
1956, 5300005, 5300006, 5310006, 5310005
1957, 5300006, 5300007, 5310007, 5310006
1958, 5300007, 5300008, 5310008, 5310007
1959, 5300008, 5300009, 5310009, 5310008
1960, 5300009, 5300010, 5310010, 5310009
1961, 5300010, 5300011, 5310011, 5310010
1962, 5300011, 5300012, 5310012, 5310011
1963, 5300012, 5300013, 5310013, 5310012
1964, 5300013, 5300014, 5310014, 5310013
1965, 5300014, 5300015, 5310015, 5310014
1966, 5300015, 5300016, 5310016, 5310015
1967, 5300016, 5300017, 5310017, 5310016
1968, 5300017, 5300018, 5310018, 5310017
1969, 5300018, 5300019, 5310019, 5310018
1970, 5300019, 5300020, 5310020, 5310019
1971, 5300020, 5300021, 5310021, 5310020
1972, 5300021, 5300022, 5310022, 5310021
1973, 5300022, 5300023, 5310023, 5310022
1974, 5300023, 5300024, 5310024, 5310023
1975, 5300024, 5300025, 5310025, 5310024
1976, 5300025, 5300026, 5310026, 5310025
1977, 5300026, 5300027, 5310027, 5310026
1978, 5300027, 5300028, 5310028, 5310027
1979, 5300028, 5300029, 5310029, 5310028
1980, 5300029, 5300030, 5310030, 5310029
1981, 5300030, 5300031, 5310031, 5310030
1982, 5300031, 5300032, 5310032, 5310031
1983, 5300032, 5300033, 5310033, 5310032
1984, 5300033, 5300034, 5310034, 5310033
1985, 5300034, 5300035, 5310035, 5310034
1986, 5300035, 5300036, 5310036, 5310035
1987, 5300036, 5300037, 5310037, 5310036
1988, 5300037, 5300038, 5310038, 5310037
1989, 5300038, 5300039, 5310039, 5310038
1990, 5300039, 5300040, 5310040, 5310039
1991, 5300040, 5300041, 5310041, 5310040
1992, 5300041, 5300042, 5310042, 5310041
1993, 5300042, 5300043, 5310043, 5310042
1994, 5300043, 5300044, 5310044, 5310043
1995, 5300044, 5300045, 5310045, 5310044
1996, 5310000, 5310001, 5320001, 5320000
1997, 5310001, 5310002, 5320002, 5320001
1998, 5310002, 5310003, 5320003, 5320002
1999, 5310003, 5310004, 5320004, 5320003
2000, 5310004, 5310005, 5320005, 5320004
2001, 5310005, 5310006, 5320006, 5320005
2002, 5310006, 5310007, 5320007, 5320006
2003, 5310007, 5310008, 5320008, 5320007
2004, 5310008, 5310009, 5320009, 5320008
2005, 5310009, 5310010, 5320010, 5320009
2006, 5310010, 5310011, 5320011, 5320010
2007, 5310011, 5310012, 5320012, 5320011
2008, 5310012, 5310013, 5320013, 5320012
2009, 5310013, 5310014, 5320014, 5320013
2010, 5310014, 5310015, 5320015, 5320014
2011, 5310015, 5310016, 5320016, 5320015
2012, 5310016, 5310017, 5320017, 5320016
2013, 5310017, 5310018, 5320018, 5320017
2014, 5310018, 5310019, 5320019, 5320018
2015, 5310019, 5310020, 5320020, 5320019
2016, 5310020, 5310021, 5320021, 5320020
2017, 5310021, 5310022, 5320022, 5320021
2018, 5310022, 5310023, 5320023, 5320022
2019, 5310023, 5310024, 5320024, 5320023
2020, 5310024, 5310025, 5320025, 5320024
2021, 5310025, 5310026, 5320026, 5320025
2022, 5310026, 5310027, 5320027, 5320026
2023, 5310027, 5310028, 5320028, 5320027
2024, 5310028, 5310029, 5320029, 5320028
2025, 5310029, 5310030, 5320030, 5320029
2026, 5310030, 5310031, 5320031, 5320030
2027, 5310031, 5310032, 5320032, 5320031
2028, 5310032, 5310033, 5320033, 5320032
2029, 5310033, 5310034, 5320034, 5320033
2030, 5310034, 5310035, 5320035, 5320034
2031, 5310035, 5310036, 5320036, 5320035
2032, 5310036, 5310037, 5320037, 5320036
2033, 5310037, 5310038, 5320038, 5320037
2034, 5310038, 5310039, 5320039, 5320038
2035, 5310039, 5310040, 5320040, 5320039
2036, 5310040, 5310041, 5320041, 5320040
2037, 5310041, 5310042, 5320042, 5320041
2038, 5310042, 5310043, 5320043, 5320042
2039, 5310043, 5310044, 5320044, 5320043
2040, 5310044, 5310045, 5320045, 5320044
2041, 5320000, 5320001, 5330001, 5330000
2042, 5320001, 5320002, 5330002, 5330001
2043, 5320002, 5320003, 5330003, 5330002
2044, 5320003, 5320004, 5330004, 5330003
2045, 5320004, 5320005, 5330005, 5330004
2046, 5320005, 5320006, 5330006, 5330005
2047, 5320006, 5320007, 5330007, 5330006
2048, 5320007, 5320008, 5330008, 5330007
2049, 5320008, 5320009, 5330009, 5330008
2050, 5320009, 5320010, 5330010, 5330009
2051, 5320010, 5320011, 5330011, 5330010
2052, 5320011, 5320012, 5330012, 5330011
2053, 5320012, 5320013, 5330013, 5330012
2054, 5320013, 5320014, 5330014, 5330013
2055, 5320014, 5320015, 5330015, 5330014
2056, 5320015, 5320016, 5330016, 5330015
2057, 5320016, 5320017, 5330017, 5330016
2058, 5320017, 5320018, 5330018, 5330017
2059, 5320018, 5320019, 5330019, 5330018
2060, 5320019, 5320020, 5330020, 5330019
2061, 5320020, 5320021, 5330021, 5330020
2062, 5320021, 5320022, 5330022, 5330021
2063, 5320022, 5320023, 5330023, 5330022
2064, 5320023, 5320024, 5330024, 5330023
2065, 5320024, 5320025, 5330025, 5330024
2066, 5320025, 5320026, 5330026, 5330025
2067, 5320026, 5320027, 5330027, 5330026
2068, 5320027, 5320028, 5330028, 5330027
2069, 5320028, 5320029, 5330029, 5330028
2070, 5320029, 5320030, 5330030, 5330029
2071, 5320030, 5320031, 5330031, 5330030
2072, 5320031, 5320032, 5330032, 5330031
2073, 5320032, 5320033, 5330033, 5330032
2074, 5320033, 5320034, 5330034, 5330033
2075, 5320034, 5320035, 5330035, 5330034
2076, 5320035, 5320036, 5330036, 5330035
2077, 5320036, 5320037, 5330037, 5330036
2078, 5320037, 5320038, 5330038, 5330037
2079, 5320038, 5320039, 5330039, 5330038
2080, 5320039, 5320040, 5330040, 5330039
2081, 5320040, 5320041, 5330041, 5330040
2082, 5320041, 5320042, 5330042, 5330041
2083, 5320042, 5320043, 5330043, 5330042
2084, 5320043, 5320044, 5330044, 5330043
2085, 5320044, 5320045, 5330045, 5330044
2086, 5330000, 5330001, 5340001, 5340000
2087, 5330001, 5330002, 5340002, 5340001
2088, 5330002, 5330003, 5340003, 5340002
2089, 5330003, 5330004, 5340004, 5340003
2090, 5330004, 5330005, 5340005, 5340004
2091, 5330005, 5330006, 5340006, 5340005
2092, 5330006, 5330007, 5340007, 5340006
2093, 5330007, 5330008, 5340008, 5340007
2094, 5330008, 5330009, 5340009, 5340008
2095, 5330009, 5330010, 5340010, 5340009
2096, 5330010, 5330011, 5340011, 5340010
2097, 5330011, 5330012, 5340012, 5340011
2098, 5330012, 5330013, 5340013, 5340012
2099, 5330013, 5330014, 5340014, 5340013
2100, 5330014, 5330015, 5340015, 5340014
2101, 5330015, 5330016, 5340016, 5340015
2102, 5330016, 5330017, 5340017, 5340016
2103, 5330017, 5330018, 5340018, 5340017
2104, 5330018, 5330019, 5340019, 5340018
2105, 5330019, 5330020, 5340020, 5340019
2106, 5330020, 5330021, 5340021, 5340020
2107, 5330021, 5330022, 5340022, 5340021
2108, 5330022, 5330023, 5340023, 5340022
2109, 5330023, 5330024, 5340024, 5340023
2110, 5330024, 5330025, 5340025, 5340024
2111, 5330025, 5330026, 5340026, 5340025
2112, 5330026, 5330027, 5340027, 5340026
2113, 5330027, 5330028, 5340028, 5340027
2114, 5330028, 5330029, 5340029, 5340028
2115, 5330029, 5330030, 5340030, 5340029
2116, 5330030, 5330031, 5340031, 5340030
2117, 5330031, 5330032, 5340032, 5340031
2118, 5330032, 5330033, 5340033, 5340032
2119, 5330033, 5330034, 5340034, 5340033
2120, 5330034, 5330035, 5340035, 5340034
2121, 5330035, 5330036, 5340036, 5340035
2122, 5330036, 5330037, 5340037, 5340036
2123, 5330037, 5330038, 5340038, 5340037
2124, 5330038, 5330039, 5340039, 5340038
2125, 5330039, 5330040, 5340040, 5340039
2126, 5330040, 5330041, 5340041, 5340040
2127, 5330041, 5330042, 5340042, 5340041
2128, 5330042, 5330043, 5340043, 5340042
2129, 5330043, 5330044, 5340044, 5340043
2130, 5330044, 5330045, 5340045, 5340044
2131, 5340000, 5340001, 5350001, 5350000
2132, 5340001, 5340002, 5350002, 5350001
2133, 5340002, 5340003, 5350003, 5350002
2134, 5340003, 5340004, 5350004, 5350003
2135, 5340004, 5340005, 5350005, 5350004
2136, 5340005, 5340006, 5350006, 5350005
2137, 5340006, 5340007, 5350007, 5350006
2138, 5340007, 5340008, 5350008, 5350007
2139, 5340008, 5340009, 5350009, 5350008
2140, 5340009, 5340010, 5350010, 5350009
2141, 5340010, 5340011, 5350011, 5350010
2142, 5340011, 5340012, 5350012, 5350011
2143, 5340012, 5340013, 5350013, 5350012
2144, 5340013, 5340014, 5350014, 5350013
2145, 5340014, 5340015, 5350015, 5350014
2146, 5340015, 5340016, 5350016, 5350015
2147, 5340016, 5340017, 5350017, 5350016
2148, 5340017, 5340018, 5350018, 5350017
2149, 5340018, 5340019, 5350019, 5350018
2150, 5340019, 5340020, 5350020, 5350019
2151, 5340020, 5340021, 5350021, 5350020
2152, 5340021, 5340022, 5350022, 5350021
2153, 5340022, 5340023, 5350023, 5350022
2154, 5340023, 5340024, 5350024, 5350023
2155, 5340024, 5340025, 5350025, 5350024
2156, 5340025, 5340026, 5350026, 5350025
2157, 5340026, 5340027, 5350027, 5350026
2158, 5340027, 5340028, 5350028, 5350027
2159, 5340028, 5340029, 5350029, 5350028
2160, 5340029, 5340030, 5350030, 5350029
2161, 5340030, 5340031, 5350031, 5350030
2162, 5340031, 5340032, 5350032, 5350031
2163, 5340032, 5340033, 5350033, 5350032
2164, 5340033, 5340034, 5350034, 5350033
2165, 5340034, 5340035, 5350035, 5350034
2166, 5340035, 5340036, 5350036, 5350035
2167, 5340036, 5340037, 5350037, 5350036
2168, 5340037, 5340038, 5350038, 5350037
2169, 5340038, 5340039, 5350039, 5350038
2170, 5340039, 5340040, 5350040, 5350039
2171, 5340040, 5340041, 5350041, 5350040
2172, 5340041, 5340042, 5350042, 5350041
2173, 5340042, 5340043, 5350043, 5350042
2174, 5340043, 5340044, 5350044, 5350043
2175, 5340044, 5340045, 5350045, 5350044
2176, 5350000, 5350001, 5360001, 5360000
2177, 5350001, 5350002, 5360002, 5360001
2178, 5350002, 5350003, 5360003, 5360002
2179, 5350003, 5350004, 5360004, 5360003
2180, 5350004, 5350005, 5360005, 5360004
2181, 5350005, 5350006, 5360006, 5360005
2182, 5350006, 5350007, 5360007, 5360006
2183, 5350007, 5350008, 5360008, 5360007
2184, 5350008, 5350009, 5360009, 5360008
2185, 5350009, 5350010, 5360010, 5360009
2186, 5350010, 5350011, 5360011, 5360010
2187, 5350011, 5350012, 5360012, 5360011
2188, 5350012, 5350013, 5360013, 5360012
2189, 5350013, 5350014, 5360014, 5360013
2190, 5350014, 5350015, 5360015, 5360014
2191, 5350015, 5350016, 5360016, 5360015
2192, 5350016, 5350017, 5360017, 5360016
2193, 5350017, 5350018, 5360018, 5360017
2194, 5350018, 5350019, 5360019, 5360018
2195, 5350019, 5350020, 5360020, 5360019
2196, 5350020, 5350021, 5360021, 5360020
2197, 5350021, 5350022, 5360022, 5360021
2198, 5350022, 5350023, 5360023, 5360022
2199, 5350023, 5350024, 5360024, 5360023
2200, 5350024, 5350025, 5360025, 5360024
2201, 5350025, 5350026, 5360026, 5360025
2202, 5350026, 5350027, 5360027, 5360026
2203, 5350027, 5350028, 5360028, 5360027
2204, 5350028, 5350029, 5360029, 5360028
2205, 5350029, 5350030, 5360030, 5360029
2206, 5350030, 5350031, 5360031, 5360030
2207, 5350031, 5350032, 5360032, 5360031
2208, 5350032, 5350033, 5360033, 5360032
2209, 5350033, 5350034, 5360034, 5360033
2210, 5350034, 5350035, 5360035, 5360034
2211, 5350035, 5350036, 5360036, 5360035
2212, 5350036, 5350037, 5360037, 5360036
2213, 5350037, 5350038, 5360038, 5360037
2214, 5350038, 5350039, 5360039, 5360038
2215, 5350039, 5350040, 5360040, 5360039
2216, 5350040, 5350041, 5360041, 5360040
2217, 5350041, 5350042, 5360042, 5360041
2218, 5350042, 5350043, 5360043, 5360042
2219, 5350043, 5350044, 5360044, 5360043
2220, 5350044, 5350045, 5360045, 5360044
2221, 5360000, 5360001, 5370001, 5370000
2222, 5360001, 5360002, 5370002, 5370001
2223, 5360002, 5360003, 5370003, 5370002
2224, 5360003, 5360004, 5370004, 5370003
2225, 5360004, 5360005, 5370005, 5370004
2226, 5360005, 5360006, 5370006, 5370005
2227, 5360006, 5360007, 5370007, 5370006
2228, 5360007, 5360008, 5370008, 5370007
2229, 5360008, 5360009, 5370009, 5370008
2230, 5360009, 5360010, 5370010, 5370009
2231, 5360010, 5360011, 5370011, 5370010
2232, 5360011, 5360012, 5370012, 5370011
2233, 5360012, 5360013, 5370013, 5370012
2234, 5360013, 5360014, 5370014, 5370013
2235, 5360014, 5360015, 5370015, 5370014
2236, 5360015, 5360016, 5370016, 5370015
2237, 5360016, 5360017, 5370017, 5370016
2238, 5360017, 5360018, 5370018, 5370017
2239, 5360018, 5360019, 5370019, 5370018
2240, 5360019, 5360020, 5370020, 5370019
2241, 5360020, 5360021, 5370021, 5370020
2242, 5360021, 5360022, 5370022, 5370021
2243, 5360022, 5360023, 5370023, 5370022
2244, 5360023, 5360024, 5370024, 5370023
2245, 5360024, 5360025, 5370025, 5370024
2246, 5360025, 5360026, 5370026, 5370025
2247, 5360026, 5360027, 5370027, 5370026
2248, 5360027, 5360028, 5370028, 5370027
2249, 5360028, 5360029, 5370029, 5370028
2250, 5360029, 5360030, 5370030, 5370029
2251, 5360030, 5360031, 5370031, 5370030
2252, 5360031, 5360032, 5370032, 5370031
2253, 5360032, 5360033, 5370033, 5370032
2254, 5360033, 5360034, 5370034, 5370033
2255, 5360034, 5360035, 5370035, 5370034
2256, 5360035, 5360036, 5370036, 5370035
2257, 5360036, 5360037, 5370037, 5370036
2258, 5360037, 5360038, 5370038, 5370037
2259, 5360038, 5360039, 5370039, 5370038
2260, 5360039, 5360040, 5370040, 5370039
2261, 5360040, 5360041, 5370041, 5370040
2262, 5360041, 5360042, 5370042, 5370041
2263, 5360042, 5360043, 5370043, 5370042
2264, 5360043, 5360044, 5370044, 5370043
2265, 5360044, 5360045, 5370045, 5370044
2266, 5370000, 5370001, 5380001, 5380000
2267, 5370001, 5370002, 5380002, 5380001
2268, 5370002, 5370003, 5380003, 5380002
2269, 5370003, 5370004, 5380004, 5380003
2270, 5370004, 5370005, 5380005, 5380004
2271, 5370005, 5370006, 5380006, 5380005
2272, 5370006, 5370007, 5380007, 5380006
2273, 5370007, 5370008, 5380008, 5380007
2274, 5370008, 5370009, 5380009, 5380008
2275, 5370009, 5370010, 5380010, 5380009
2276, 5370010, 5370011, 5380011, 5380010
2277, 5370011, 5370012, 5380012, 5380011
2278, 5370012, 5370013, 5380013, 5380012
2279, 5370013, 5370014, 5380014, 5380013
2280, 5370014, 5370015, 5380015, 5380014
2281, 5370015, 5370016, 5380016, 5380015
2282, 5370016, 5370017, 5380017, 5380016
2283, 5370017, 5370018, 5380018, 5380017
2284, 5370018, 5370019, 5380019, 5380018
2285, 5370019, 5370020, 5380020, 5380019
2286, 5370020, 5370021, 5380021, 5380020
2287, 5370021, 5370022, 5380022, 5380021
2288, 5370022, 5370023, 5380023, 5380022
2289, 5370023, 5370024, 5380024, 5380023
2290, 5370024, 5370025, 5380025, 5380024
2291, 5370025, 5370026, 5380026, 5380025
2292, 5370026, 5370027, 5380027, 5380026
2293, 5370027, 5370028, 5380028, 5380027
2294, 5370028, 5370029, 5380029, 5380028
2295, 5370029, 5370030, 5380030, 5380029
2296, 5370030, 5370031, 5380031, 5380030
2297, 5370031, 5370032, 5380032, 5380031
2298, 5370032, 5370033, 5380033, 5380032
2299, 5370033, 5370034, 5380034, 5380033
2300, 5370034, 5370035, 5380035, 5380034
2301, 5370035, 5370036, 5380036, 5380035
2302, 5370036, 5370037, 5380037, 5380036
2303, 5370037, 5370038, 5380038, 5380037
2304, 5370038, 5370039, 5380039, 5380038
2305, 5370039, 5370040, 5380040, 5380039
2306, 5370040, 5370041, 5380041, 5380040
2307, 5370041, 5370042, 5380042, 5380041
2308, 5370042, 5370043, 5380043, 5380042
2309, 5370043, 5370044, 5380044, 5380043
2310, 5370044, 5370045, 5380045, 5380044
2311, 5380000, 5380001, 5390001, 5390000
2312, 5380001, 5380002, 5390002, 5390001
2313, 5380002, 5380003, 5390003, 5390002
2314, 5380003, 5380004, 5390004, 5390003
2315, 5380004, 5380005, 5390005, 5390004
2316, 5380005, 5380006, 5390006, 5390005
2317, 5380006, 5380007, 5390007, 5390006
2318, 5380007, 5380008, 5390008, 5390007
2319, 5380008, 5380009, 5390009, 5390008
2320, 5380009, 5380010, 5390010, 5390009
2321, 5380010, 5380011, 5390011, 5390010
2322, 5380011, 5380012, 5390012, 5390011
2323, 5380012, 5380013, 5390013, 5390012
2324, 5380013, 5380014, 5390014, 5390013
2325, 5380014, 5380015, 5390015, 5390014
2326, 5380015, 5380016, 5390016, 5390015
2327, 5380016, 5380017, 5390017, 5390016
2328, 5380017, 5380018, 5390018, 5390017
2329, 5380018, 5380019, 5390019, 5390018
2330, 5380019, 5380020, 5390020, 5390019
2331, 5380020, 5380021, 5390021, 5390020
2332, 5380021, 5380022, 5390022, 5390021
2333, 5380022, 5380023, 5390023, 5390022
2334, 5380023, 5380024, 5390024, 5390023
2335, 5380024, 5380025, 5390025, 5390024
2336, 5380025, 5380026, 5390026, 5390025
2337, 5380026, 5380027, 5390027, 5390026
2338, 5380027, 5380028, 5390028, 5390027
2339, 5380028, 5380029, 5390029, 5390028
2340, 5380029, 5380030, 5390030, 5390029
2341, 5380030, 5380031, 5390031, 5390030
2342, 5380031, 5380032, 5390032, 5390031
2343, 5380032, 5380033, 5390033, 5390032
2344, 5380033, 5380034, 5390034, 5390033
2345, 5380034, 5380035, 5390035, 5390034
2346, 5380035, 5380036, 5390036, 5390035
2347, 5380036, 5380037, 5390037, 5390036
2348, 5380037, 5380038, 5390038, 5390037
2349, 5380038, 5380039, 5390039, 5390038
2350, 5380039, 5380040, 5390040, 5390039
2351, 5380040, 5380041, 5390041, 5390040
2352, 5380041, 5380042, 5390042, 5390041
2353, 5380042, 5380043, 5390043, 5390042
2354, 5380043, 5380044, 5390044, 5390043
2355, 5380044, 5380045, 5390045, 5390044
2356, 5390000, 5390001, 5400001, 5400000
2357, 5390001, 5390002, 5400002, 5400001
2358, 5390002, 5390003, 5400003, 5400002
2359, 5390003, 5390004, 5400004, 5400003
2360, 5390004, 5390005, 5400005, 5400004
2361, 5390005, 5390006, 5400006, 5400005
2362, 5390006, 5390007, 5400007, 5400006
2363, 5390007, 5390008, 5400008, 5400007
2364, 5390008, 5390009, 5400009, 5400008
2365, 5390009, 5390010, 5400010, 5400009
2366, 5390010, 5390011, 5400011, 5400010
2367, 5390011, 5390012, 5400012, 5400011
2368, 5390012, 5390013, 5400013, 5400012
2369, 5390013, 5390014, 5400014, 5400013
2370, 5390014, 5390015, 5400015, 5400014
2371, 5390015, 5390016, 5400016, 5400015
2372, 5390016, 5390017, 5400017, 5400016
2373, 5390017, 5390018, 5400018, 5400017
2374, 5390018, 5390019, 5400019, 5400018
2375, 5390019, 5390020, 5400020, 5400019
2376, 5390020, 5390021, 5400021, 5400020
2377, 5390021, 5390022, 5400022, 5400021
2378, 5390022, 5390023, 5400023, 5400022
2379, 5390023, 5390024, 5400024, 5400023
2380, 5390024, 5390025, 5400025, 5400024
2381, 5390025, 5390026, 5400026, 5400025
2382, 5390026, 5390027, 5400027, 5400026
2383, 5390027, 5390028, 5400028, 5400027
2384, 5390028, 5390029, 5400029, 5400028
2385, 5390029, 5390030, 5400030, 5400029
2386, 5390030, 5390031, 5400031, 5400030
2387, 5390031, 5390032, 5400032, 5400031
2388, 5390032, 5390033, 5400033, 5400032
2389, 5390033, 5390034, 5400034, 5400033
2390, 5390034, 5390035, 5400035, 5400034
2391, 5390035, 5390036, 5400036, 5400035
2392, 5390036, 5390037, 5400037, 5400036
2393, 5390037, 5390038, 5400038, 5400037
2394, 5390038, 5390039, 5400039, 5400038
2395, 5390039, 5390040, 5400040, 5400039
2396, 5390040, 5390041, 5400041, 5400040
2397, 5390041, 5390042, 5400042, 5400041
2398, 5390042, 5390043, 5400043, 5400042
2399, 5390043, 5390044, 5400044, 5400043
2400, 5390044, 5390045, 5400045, 5400044
2401, 5400000, 5400001, 5410001, 5410000
2402, 5400001, 5400002, 5410002, 5410001
2403, 5400002, 5400003, 5410003, 5410002
2404, 5400003, 5400004, 5410004, 5410003
2405, 5400004, 5400005, 5410005, 5410004
2406, 5400005, 5400006, 5410006, 5410005
2407, 5400006, 5400007, 5410007, 5410006
2408, 5400007, 5400008, 5410008, 5410007
2409, 5400008, 5400009, 5410009, 5410008
2410, 5400009, 5400010, 5410010, 5410009
2411, 5400010, 5400011, 5410011, 5410010
2412, 5400011, 5400012, 5410012, 5410011
2413, 5400012, 5400013, 5410013, 5410012
2414, 5400013, 5400014, 5410014, 5410013
2415, 5400014, 5400015, 5410015, 5410014
2416, 5400015, 5400016, 5410016, 5410015
2417, 5400016, 5400017, 5410017, 5410016
2418, 5400017, 5400018, 5410018, 5410017
2419, 5400018, 5400019, 5410019, 5410018
2420, 5400019, 5400020, 5410020, 5410019
2421, 5400020, 5400021, 5410021, 5410020
2422, 5400021, 5400022, 5410022, 5410021
2423, 5400022, 5400023, 5410023, 5410022
2424, 5400023, 5400024, 5410024, 5410023
2425, 5400024, 5400025, 5410025, 5410024
2426, 5400025, 5400026, 5410026, 5410025
2427, 5400026, 5400027, 5410027, 5410026
2428, 5400027, 5400028, 5410028, 5410027
2429, 5400028, 5400029, 5410029, 5410028
2430, 5400029, 5400030, 5410030, 5410029
2431, 5400030, 5400031, 5410031, 5410030
2432, 5400031, 5400032, 5410032, 5410031
2433, 5400032, 5400033, 5410033, 5410032
2434, 5400033, 5400034, 5410034, 5410033
2435, 5400034, 5400035, 5410035, 5410034
2436, 5400035, 5400036, 5410036, 5410035
2437, 5400036, 5400037, 5410037, 5410036
2438, 5400037, 5400038, 5410038, 5410037
2439, 5400038, 5400039, 5410039, 5410038
2440, 5400039, 5400040, 5410040, 5410039
2441, 5400040, 5400041, 5410041, 5410040
2442, 5400041, 5400042, 5410042, 5410041
2443, 5400042, 5400043, 5410043, 5410042
2444, 5400043, 5400044, 5410044, 5410043
2445, 5400044, 5400045, 5410045, 5410044
2446, 5410000, 5410001, 5420001, 5420000
2447, 5410001, 5410002, 5420002, 5420001
2448, 5410002, 5410003, 5420003, 5420002
2449, 5410003, 5410004, 5420004, 5420003
2450, 5410004, 5410005, 5420005, 5420004
2451, 5410005, 5410006, 5420006, 5420005
2452, 5410006, 5410007, 5420007, 5420006
2453, 5410007, 5410008, 5420008, 5420007
2454, 5410008, 5410009, 5420009, 5420008
2455, 5410009, 5410010, 5420010, 5420009
2456, 5410010, 5410011, 5420011, 5420010
2457, 5410011, 5410012, 5420012, 5420011
2458, 5410012, 5410013, 5420013, 5420012
2459, 5410013, 5410014, 5420014, 5420013
2460, 5410014, 5410015, 5420015, 5420014
2461, 5410015, 5410016, 5420016, 5420015
2462, 5410016, 5410017, 5420017, 5420016
2463, 5410017, 5410018, 5420018, 5420017
2464, 5410018, 5410019, 5420019, 5420018
2465, 5410019, 5410020, 5420020, 5420019
2466, 5410020, 5410021, 5420021, 5420020
2467, 5410021, 5410022, 5420022, 5420021
2468, 5410022, 5410023, 5420023, 5420022
2469, 5410023, 5410024, 5420024, 5420023
2470, 5410024, 5410025, 5420025, 5420024
2471, 5410025, 5410026, 5420026, 5420025
2472, 5410026, 5410027, 5420027, 5420026
2473, 5410027, 5410028, 5420028, 5420027
2474, 5410028, 5410029, 5420029, 5420028
2475, 5410029, 5410030, 5420030, 5420029
2476, 5410030, 5410031, 5420031, 5420030
2477, 5410031, 5410032, 5420032, 5420031
2478, 5410032, 5410033, 5420033, 5420032
2479, 5410033, 5410034, 5420034, 5420033
2480, 5410034, 5410035, 5420035, 5420034
2481, 5410035, 5410036, 5420036, 5420035
2482, 5410036, 5410037, 5420037, 5420036
2483, 5410037, 5410038, 5420038, 5420037
2484, 5410038, 5410039, 5420039, 5420038
2485, 5410039, 5410040, 5420040, 5420039
2486, 5410040, 5410041, 5420041, 5420040
2487, 5410041, 5410042, 5420042, 5420041
2488, 5410042, 5410043, 5420043, 5420042
2489, 5410043, 5410044, 5420044, 5420043
2490, 5410044, 5410045, 5420045, 5420044
2491, 5420000, 5420001, 5430001, 5430000
2492, 5420001, 5420002, 5430002, 5430001
2493, 5420002, 5420003, 5430003, 5430002
2494, 5420003, 5420004, 5430004, 5430003
2495, 5420004, 5420005, 5430005, 5430004
2496, 5420005, 5420006, 5430006, 5430005
2497, 5420006, 5420007, 5430007, 5430006
2498, 5420007, 5420008, 5430008, 5430007
2499, 5420008, 5420009, 5430009, 5430008
2500, 5420009, 5420010, 5430010, 5430009
2501, 5420010, 5420011, 5430011, 5430010
2502, 5420011, 5420012, 5430012, 5430011
2503, 5420012, 5420013, 5430013, 5430012
2504, 5420013, 5420014, 5430014, 5430013
2505, 5420014, 5420015, 5430015, 5430014
2506, 5420015, 5420016, 5430016, 5430015
2507, 5420016, 5420017, 5430017, 5430016
2508, 5420017, 5420018, 5430018, 5430017
2509, 5420018, 5420019, 5430019, 5430018
2510, 5420019, 5420020, 5430020, 5430019
2511, 5420020, 5420021, 5430021, 5430020
2512, 5420021, 5420022, 5430022, 5430021
2513, 5420022, 5420023, 5430023, 5430022
2514, 5420023, 5420024, 5430024, 5430023
2515, 5420024, 5420025, 5430025, 5430024
2516, 5420025, 5420026, 5430026, 5430025
2517, 5420026, 5420027, 5430027, 5430026
2518, 5420027, 5420028, 5430028, 5430027
2519, 5420028, 5420029, 5430029, 5430028
2520, 5420029, 5420030, 5430030, 5430029
2521, 5420030, 5420031, 5430031, 5430030
2522, 5420031, 5420032, 5430032, 5430031
2523, 5420032, 5420033, 5430033, 5430032
2524, 5420033, 5420034, 5430034, 5430033
2525, 5420034, 5420035, 5430035, 5430034
2526, 5420035, 5420036, 5430036, 5430035
2527, 5420036, 5420037, 5430037, 5430036
2528, 5420037, 5420038, 5430038, 5430037
2529, 5420038, 5420039, 5430039, 5430038
2530, 5420039, 5420040, 5430040, 5430039
2531, 5420040, 5420041, 5430041, 5430040
2532, 5420041, 5420042, 5430042, 5430041
2533, 5420042, 5420043, 5430043, 5430042
2534, 5420043, 5420044, 5430044, 5430043
2535, 5420044, 5420045, 5430045, 5430044
2536, 5430000, 5430001, 5440001, 5440000
2537, 5430001, 5430002, 5440002, 5440001
2538, 5430002, 5430003, 5440003, 5440002
2539, 5430003, 5430004, 5440004, 5440003
2540, 5430004, 5430005, 5440005, 5440004
2541, 5430005, 5430006, 5440006, 5440005
2542, 5430006, 5430007, 5440007, 5440006
2543, 5430007, 5430008, 5440008, 5440007
2544, 5430008, 5430009, 5440009, 5440008
2545, 5430009, 5430010, 5440010, 5440009
2546, 5430010, 5430011, 5440011, 5440010
2547, 5430011, 5430012, 5440012, 5440011
2548, 5430012, 5430013, 5440013, 5440012
2549, 5430013, 5430014, 5440014, 5440013
2550, 5430014, 5430015, 5440015, 5440014
2551, 5430015, 5430016, 5440016, 5440015
2552, 5430016, 5430017, 5440017, 5440016
2553, 5430017, 5430018, 5440018, 5440017
2554, 5430018, 5430019, 5440019, 5440018
2555, 5430019, 5430020, 5440020, 5440019
2556, 5430020, 5430021, 5440021, 5440020
2557, 5430021, 5430022, 5440022, 5440021
2558, 5430022, 5430023, 5440023, 5440022
2559, 5430023, 5430024, 5440024, 5440023
2560, 5430024, 5430025, 5440025, 5440024
2561, 5430025, 5430026, 5440026, 5440025
2562, 5430026, 5430027, 5440027, 5440026
2563, 5430027, 5430028, 5440028, 5440027
2564, 5430028, 5430029, 5440029, 5440028
2565, 5430029, 5430030, 5440030, 5440029
2566, 5430030, 5430031, 5440031, 5440030
2567, 5430031, 5430032, 5440032, 5440031
2568, 5430032, 5430033, 5440033, 5440032
2569, 5430033, 5430034, 5440034, 5440033
2570, 5430034, 5430035, 5440035, 5440034
2571, 5430035, 5430036, 5440036, 5440035
2572, 5430036, 5430037, 5440037, 5440036
2573, 5430037, 5430038, 5440038, 5440037
2574, 5430038, 5430039, 5440039, 5440038
2575, 5430039, 5430040, 5440040, 5440039
2576, 5430040, 5430041, 5440041, 5440040
2577, 5430041, 5430042, 5440042, 5440041
2578, 5430042, 5430043, 5440043, 5440042
2579, 5430043, 5430044, 5440044, 5440043
2580, 5430044, 5430045, 5440045, 5440044
2581, 5440000, 5440001, 5450001, 5450000
2582, 5440001, 5440002, 5450002, 5450001
2583, 5440002, 5440003, 5450003, 5450002
2584, 5440003, 5440004, 5450004, 5450003
2585, 5440004, 5440005, 5450005, 5450004
2586, 5440005, 5440006, 5450006, 5450005
2587, 5440006, 5440007, 5450007, 5450006
2588, 5440007, 5440008, 5450008, 5450007
2589, 5440008, 5440009, 5450009, 5450008
2590, 5440009, 5440010, 5450010, 5450009
2591, 5440010, 5440011, 5450011, 5450010
2592, 5440011, 5440012, 5450012, 5450011
2593, 5440012, 5440013, 5450013, 5450012
2594, 5440013, 5440014, 5450014, 5450013
2595, 5440014, 5440015, 5450015, 5450014
2596, 5440015, 5440016, 5450016, 5450015
2597, 5440016, 5440017, 5450017, 5450016
2598, 5440017, 5440018, 5450018, 5450017
2599, 5440018, 5440019, 5450019, 5450018
2600, 5440019, 5440020, 5450020, 5450019
2601, 5440020, 5440021, 5450021, 5450020
2602, 5440021, 5440022, 5450022, 5450021
2603, 5440022, 5440023, 5450023, 5450022
2604, 5440023, 5440024, 5450024, 5450023
2605, 5440024, 5440025, 5450025, 5450024
2606, 5440025, 5440026, 5450026, 5450025
2607, 5440026, 5440027, 5450027, 5450026
2608, 5440027, 5440028, 5450028, 5450027
2609, 5440028, 5440029, 5450029, 5450028
2610, 5440029, 5440030, 5450030, 5450029
2611, 5440030, 5440031, 5450031, 5450030
2612, 5440031, 5440032, 5450032, 5450031
2613, 5440032, 5440033, 5450033, 5450032
2614, 5440033, 5440034, 5450034, 5450033
2615, 5440034, 5440035, 5450035, 5450034
2616, 5440035, 5440036, 5450036, 5450035
2617, 5440036, 5440037, 5450037, 5450036
2618, 5440037, 5440038, 5450038, 5450037
2619, 5440038, 5440039, 5450039, 5450038
2620, 5440039, 5440040, 5450040, 5450039
2621, 5440040, 5440041, 5450041, 5450040
2622, 5440041, 5440042, 5450042, 5450041
2623, 5440042, 5440043, 5450043, 5450042
2624, 5440043, 5440044, 5450044, 5450043
2625, 5440044, 5440045, 5450045, 5450044
2626, 5450000, 5450001, 5460001, 5460000
2627, 5450001, 5450002, 5460002, 5460001
2628, 5450002, 5450003, 5460003, 5460002
2629, 5450003, 5450004, 5460004, 5460003
2630, 5450004, 5450005, 5460005, 5460004
2631, 5450005, 5450006, 5460006, 5460005
2632, 5450006, 5450007, 5460007, 5460006
2633, 5450007, 5450008, 5460008, 5460007
2634, 5450008, 5450009, 5460009, 5460008
2635, 5450009, 5450010, 5460010, 5460009
2636, 5450010, 5450011, 5460011, 5460010
2637, 5450011, 5450012, 5460012, 5460011
2638, 5450012, 5450013, 5460013, 5460012
2639, 5450013, 5450014, 5460014, 5460013
2640, 5450014, 5450015, 5460015, 5460014
2641, 5450015, 5450016, 5460016, 5460015
2642, 5450016, 5450017, 5460017, 5460016
2643, 5450017, 5450018, 5460018, 5460017
2644, 5450018, 5450019, 5460019, 5460018
2645, 5450019, 5450020, 5460020, 5460019
2646, 5450020, 5450021, 5460021, 5460020
2647, 5450021, 5450022, 5460022, 5460021
2648, 5450022, 5450023, 5460023, 5460022
2649, 5450023, 5450024, 5460024, 5460023
2650, 5450024, 5450025, 5460025, 5460024
2651, 5450025, 5450026, 5460026, 5460025
2652, 5450026, 5450027, 5460027, 5460026
2653, 5450027, 5450028, 5460028, 5460027
2654, 5450028, 5450029, 5460029, 5460028
2655, 5450029, 5450030, 5460030, 5460029
2656, 5450030, 5450031, 5460031, 5460030
2657, 5450031, 5450032, 5460032, 5460031
2658, 5450032, 5450033, 5460033, 5460032
2659, 5450033, 5450034, 5460034, 5460033
2660, 5450034, 5450035, 5460035, 5460034
2661, 5450035, 5450036, 5460036, 5460035
2662, 5450036, 5450037, 5460037, 5460036
2663, 5450037, 5450038, 5460038, 5460037
2664, 5450038, 5450039, 5460039, 5460038
2665, 5450039, 5450040, 5460040, 5460039
2666, 5450040, 5450041, 5460041, 5460040
2667, 5450041, 5450042, 5460042, 5460041
2668, 5450042, 5450043, 5460043, 5460042
2669, 5450043, 5450044, 5460044, 5460043
2670, 5450044, 5450045, 5460045, 5460044
2671, 5460000, 5460001, 5470001, 5470000
2672, 5460001, 5460002, 5470002, 5470001
2673, 5460002, 5460003, 5470003, 5470002
2674, 5460003, 5460004, 5470004, 5470003
2675, 5460004, 5460005, 5470005, 5470004
2676, 5460005, 5460006, 5470006, 5470005
2677, 5460006, 5460007, 5470007, 5470006
2678, 5460007, 5460008, 5470008, 5470007
2679, 5460008, 5460009, 5470009, 5470008
2680, 5460009, 5460010, 5470010, 5470009
2681, 5460010, 5460011, 5470011, 5470010
2682, 5460011, 5460012, 5470012, 5470011
2683, 5460012, 5460013, 5470013, 5470012
2684, 5460013, 5460014, 5470014, 5470013
2685, 5460014, 5460015, 5470015, 5470014
2686, 5460015, 5460016, 5470016, 5470015
2687, 5460016, 5460017, 5470017, 5470016
2688, 5460017, 5460018, 5470018, 5470017
2689, 5460018, 5460019, 5470019, 5470018
2690, 5460019, 5460020, 5470020, 5470019
2691, 5460020, 5460021, 5470021, 5470020
2692, 5460021, 5460022, 5470022, 5470021
2693, 5460022, 5460023, 5470023, 5470022
2694, 5460023, 5460024, 5470024, 5470023
2695, 5460024, 5460025, 5470025, 5470024
2696, 5460025, 5460026, 5470026, 5470025
2697, 5460026, 5460027, 5470027, 5470026
2698, 5460027, 5460028, 5470028, 5470027
2699, 5460028, 5460029, 5470029, 5470028
2700, 5460029, 5460030, 5470030, 5470029
2701, 5460030, 5460031, 5470031, 5470030
2702, 5460031, 5460032, 5470032, 5470031
2703, 5460032, 5460033, 5470033, 5470032
2704, 5460033, 5460034, 5470034, 5470033
2705, 5460034, 5460035, 5470035, 5470034
2706, 5460035, 5460036, 5470036, 5470035
2707, 5460036, 5460037, 5470037, 5470036
2708, 5460037, 5460038, 5470038, 5470037
2709, 5460038, 5460039, 5470039, 5470038
2710, 5460039, 5460040, 5470040, 5470039
2711, 5460040, 5460041, 5470041, 5470040
2712, 5460041, 5460042, 5470042, 5470041
2713, 5460042, 5460043, 5470043, 5470042
2714, 5460043, 5460044, 5470044, 5470043
2715, 5460044, 5460045, 5470045, 5470044
2716, 5470000, 5470001, 5480001, 5480000
2717, 5470001, 5470002, 5480002, 5480001
2718, 5470002, 5470003, 5480003, 5480002
2719, 5470003, 5470004, 5480004, 5480003
2720, 5470004, 5470005, 5480005, 5480004
2721, 5470005, 5470006, 5480006, 5480005
2722, 5470006, 5470007, 5480007, 5480006
2723, 5470007, 5470008, 5480008, 5480007
2724, 5470008, 5470009, 5480009, 5480008
2725, 5470009, 5470010, 5480010, 5480009
2726, 5470010, 5470011, 5480011, 5480010
2727, 5470011, 5470012, 5480012, 5480011
2728, 5470012, 5470013, 5480013, 5480012
2729, 5470013, 5470014, 5480014, 5480013
2730, 5470014, 5470015, 5480015, 5480014
2731, 5470015, 5470016, 5480016, 5480015
2732, 5470016, 5470017, 5480017, 5480016
2733, 5470017, 5470018, 5480018, 5480017
2734, 5470018, 5470019, 5480019, 5480018
2735, 5470019, 5470020, 5480020, 5480019
2736, 5470020, 5470021, 5480021, 5480020
2737, 5470021, 5470022, 5480022, 5480021
2738, 5470022, 5470023, 5480023, 5480022
2739, 5470023, 5470024, 5480024, 5480023
2740, 5470024, 5470025, 5480025, 5480024
2741, 5470025, 5470026, 5480026, 5480025
2742, 5470026, 5470027, 5480027, 5480026
2743, 5470027, 5470028, 5480028, 5480027
2744, 5470028, 5470029, 5480029, 5480028
2745, 5470029, 5470030, 5480030, 5480029
2746, 5470030, 5470031, 5480031, 5480030
2747, 5470031, 5470032, 5480032, 5480031
2748, 5470032, 5470033, 5480033, 5480032
2749, 5470033, 5470034, 5480034, 5480033
2750, 5470034, 5470035, 5480035, 5480034
2751, 5470035, 5470036, 5480036, 5480035
2752, 5470036, 5470037, 5480037, 5480036
2753, 5470037, 5470038, 5480038, 5480037
2754, 5470038, 5470039, 5480039, 5480038
2755, 5470039, 5470040, 5480040, 5480039
2756, 5470040, 5470041, 5480041, 5480040
2757, 5470041, 5470042, 5480042, 5480041
2758, 5470042, 5470043, 5480043, 5480042
2759, 5470043, 5470044, 5480044, 5480043
2760, 5470044, 5470045, 5480045, 5480044
2761, 5480000, 5480001, 5490001, 5490000
2762, 5480001, 5480002, 5490002, 5490001
2763, 5480002, 5480003, 5490003, 5490002
2764, 5480003, 5480004, 5490004, 5490003
2765, 5480004, 5480005, 5490005, 5490004
2766, 5480005, 5480006, 5490006, 5490005
2767, 5480006, 5480007, 5490007, 5490006
2768, 5480007, 5480008, 5490008, 5490007
2769, 5480008, 5480009, 5490009, 5490008
2770, 5480009, 5480010, 5490010, 5490009
2771, 5480010, 5480011, 5490011, 5490010
2772, 5480011, 5480012, 5490012, 5490011
2773, 5480012, 5480013, 5490013, 5490012
2774, 5480013, 5480014, 5490014, 5490013
2775, 5480014, 5480015, 5490015, 5490014
2776, 5480015, 5480016, 5490016, 5490015
2777, 5480016, 5480017, 5490017, 5490016
2778, 5480017, 5480018, 5490018, 5490017
2779, 5480018, 5480019, 5490019, 5490018
2780, 5480019, 5480020, 5490020, 5490019
2781, 5480020, 5480021, 5490021, 5490020
2782, 5480021, 5480022, 5490022, 5490021
2783, 5480022, 5480023, 5490023, 5490022
2784, 5480023, 5480024, 5490024, 5490023
2785, 5480024, 5480025, 5490025, 5490024
2786, 5480025, 5480026, 5490026, 5490025
2787, 5480026, 5480027, 5490027, 5490026
2788, 5480027, 5480028, 5490028, 5490027
2789, 5480028, 5480029, 5490029, 5490028
2790, 5480029, 5480030, 5490030, 5490029
2791, 5480030, 5480031, 5490031, 5490030
2792, 5480031, 5480032, 5490032, 5490031
2793, 5480032, 5480033, 5490033, 5490032
2794, 5480033, 5480034, 5490034, 5490033
2795, 5480034, 5480035, 5490035, 5490034
2796, 5480035, 5480036, 5490036, 5490035
2797, 5480036, 5480037, 5490037, 5490036
2798, 5480037, 5480038, 5490038, 5490037
2799, 5480038, 5480039, 5490039, 5490038
2800, 5480039, 5480040, 5490040, 5490039
2801, 5480040, 5480041, 5490041, 5490040
2802, 5480041, 5480042, 5490042, 5490041
2803, 5480042, 5480043, 5490043, 5490042
2804, 5480043, 5480044, 5490044, 5490043
2805, 5480044, 5480045, 5490045, 5490044
2806, 5490000, 5490001, 5500001, 5500000
2807, 5490001, 5490002, 5500002, 5500001
2808, 5490002, 5490003, 5500003, 5500002
2809, 5490003, 5490004, 5500004, 5500003
2810, 5490004, 5490005, 5500005, 5500004
2811, 5490005, 5490006, 5500006, 5500005
2812, 5490006, 5490007, 5500007, 5500006
2813, 5490007, 5490008, 5500008, 5500007
2814, 5490008, 5490009, 5500009, 5500008
2815, 5490009, 5490010, 5500010, 5500009
2816, 5490010, 5490011, 5500011, 5500010
2817, 5490011, 5490012, 5500012, 5500011
2818, 5490012, 5490013, 5500013, 5500012
2819, 5490013, 5490014, 5500014, 5500013
2820, 5490014, 5490015, 5500015, 5500014
2821, 5490015, 5490016, 5500016, 5500015
2822, 5490016, 5490017, 5500017, 5500016
2823, 5490017, 5490018, 5500018, 5500017
2824, 5490018, 5490019, 5500019, 5500018
2825, 5490019, 5490020, 5500020, 5500019
2826, 5490020, 5490021, 5500021, 5500020
2827, 5490021, 5490022, 5500022, 5500021
2828, 5490022, 5490023, 5500023, 5500022
2829, 5490023, 5490024, 5500024, 5500023
2830, 5490024, 5490025, 5500025, 5500024
2831, 5490025, 5490026, 5500026, 5500025
2832, 5490026, 5490027, 5500027, 5500026
2833, 5490027, 5490028, 5500028, 5500027
2834, 5490028, 5490029, 5500029, 5500028
2835, 5490029, 5490030, 5500030, 5500029
2836, 5490030, 5490031, 5500031, 5500030
2837, 5490031, 5490032, 5500032, 5500031
2838, 5490032, 5490033, 5500033, 5500032
2839, 5490033, 5490034, 5500034, 5500033
2840, 5490034, 5490035, 5500035, 5500034
2841, 5490035, 5490036, 5500036, 5500035
2842, 5490036, 5490037, 5500037, 5500036
2843, 5490037, 5490038, 5500038, 5500037
2844, 5490038, 5490039, 5500039, 5500038
2845, 5490039, 5490040, 5500040, 5500039
2846, 5490040, 5490041, 5500041, 5500040
2847, 5490041, 5490042, 5500042, 5500041
2848, 5490042, 5490043, 5500043, 5500042
2849, 5490043, 5490044, 5500044, 5500043
2850, 5490044, 5490045, 5500045, 5500044
2851, 5500000, 5500001, 5510001, 5510000
2852, 5500001, 5500002, 5510002, 5510001
2853, 5500002, 5500003, 5510003, 5510002
2854, 5500003, 5500004, 5510004, 5510003
2855, 5500004, 5500005, 5510005, 5510004
2856, 5500005, 5500006, 5510006, 5510005
2857, 5500006, 5500007, 5510007, 5510006
2858, 5500007, 5500008, 5510008, 5510007
2859, 5500008, 5500009, 5510009, 5510008
2860, 5500009, 5500010, 5510010, 5510009
2861, 5500010, 5500011, 5510011, 5510010
2862, 5500011, 5500012, 5510012, 5510011
2863, 5500012, 5500013, 5510013, 5510012
2864, 5500013, 5500014, 5510014, 5510013
2865, 5500014, 5500015, 5510015, 5510014
2866, 5500015, 5500016, 5510016, 5510015
2867, 5500016, 5500017, 5510017, 5510016
2868, 5500017, 5500018, 5510018, 5510017
2869, 5500018, 5500019, 5510019, 5510018
2870, 5500019, 5500020, 5510020, 5510019
2871, 5500020, 5500021, 5510021, 5510020
2872, 5500021, 5500022, 5510022, 5510021
2873, 5500022, 5500023, 5510023, 5510022
2874, 5500023, 5500024, 5510024, 5510023
2875, 5500024, 5500025, 5510025, 5510024
2876, 5500025, 5500026, 5510026, 5510025
2877, 5500026, 5500027, 5510027, 5510026
2878, 5500027, 5500028, 5510028, 5510027
2879, 5500028, 5500029, 5510029, 5510028
2880, 5500029, 5500030, 5510030, 5510029
2881, 5500030, 5500031, 5510031, 5510030
2882, 5500031, 5500032, 5510032, 5510031
2883, 5500032, 5500033, 5510033, 5510032
2884, 5500033, 5500034, 5510034, 5510033
2885, 5500034, 5500035, 5510035, 5510034
2886, 5500035, 5500036, 5510036, 5510035
2887, 5500036, 5500037, 5510037, 5510036
2888, 5500037, 5500038, 5510038, 5510037
2889, 5500038, 5500039, 5510039, 5510038
2890, 5500039, 5500040, 5510040, 5510039
2891, 5500040, 5500041, 5510041, 5510040
2892, 5500041, 5500042, 5510042, 5510041
2893, 5500042, 5500043, 5510043, 5510042
2894, 5500043, 5500044, 5510044, 5510043
2895, 5500044, 5500045, 5510045, 5510044
2896, 5510000, 5510001, 5520001, 5520000
2897, 5510001, 5510002, 5520002, 5520001
2898, 5510002, 5510003, 5520003, 5520002
2899, 5510003, 5510004, 5520004, 5520003
2900, 5510004, 5510005, 5520005, 5520004
2901, 5510005, 5510006, 5520006, 5520005
2902, 5510006, 5510007, 5520007, 5520006
2903, 5510007, 5510008, 5520008, 5520007
2904, 5510008, 5510009, 5520009, 5520008
2905, 5510009, 5510010, 5520010, 5520009
2906, 5510010, 5510011, 5520011, 5520010
2907, 5510011, 5510012, 5520012, 5520011
2908, 5510012, 5510013, 5520013, 5520012
2909, 5510013, 5510014, 5520014, 5520013
2910, 5510014, 5510015, 5520015, 5520014
2911, 5510015, 5510016, 5520016, 5520015
2912, 5510016, 5510017, 5520017, 5520016
2913, 5510017, 5510018, 5520018, 5520017
2914, 5510018, 5510019, 5520019, 5520018
2915, 5510019, 5510020, 5520020, 5520019
2916, 5510020, 5510021, 5520021, 5520020
2917, 5510021, 5510022, 5520022, 5520021
2918, 5510022, 5510023, 5520023, 5520022
2919, 5510023, 5510024, 5520024, 5520023
2920, 5510024, 5510025, 5520025, 5520024
2921, 5510025, 5510026, 5520026, 5520025
2922, 5510026, 5510027, 5520027, 5520026
2923, 5510027, 5510028, 5520028, 5520027
2924, 5510028, 5510029, 5520029, 5520028
2925, 5510029, 5510030, 5520030, 5520029
2926, 5510030, 5510031, 5520031, 5520030
2927, 5510031, 5510032, 5520032, 5520031
2928, 5510032, 5510033, 5520033, 5520032
2929, 5510033, 5510034, 5520034, 5520033
2930, 5510034, 5510035, 5520035, 5520034
2931, 5510035, 5510036, 5520036, 5520035
2932, 5510036, 5510037, 5520037, 5520036
2933, 5510037, 5510038, 5520038, 5520037
2934, 5510038, 5510039, 5520039, 5520038
2935, 5510039, 5510040, 5520040, 5520039
2936, 5510040, 5510041, 5520041, 5520040
2937, 5510041, 5510042, 5520042, 5520041
2938, 5510042, 5510043, 5520043, 5520042
2939, 5510043, 5510044, 5520044, 5520043
2940, 5510044, 5510045, 5520045, 5520044
2941, 5520000, 5520001, 5530001, 5530000
2942, 5520001, 5520002, 5530002, 5530001
2943, 5520002, 5520003, 5530003, 5530002
2944, 5520003, 5520004, 5530004, 5530003
2945, 5520004, 5520005, 5530005, 5530004
2946, 5520005, 5520006, 5530006, 5530005
2947, 5520006, 5520007, 5530007, 5530006
2948, 5520007, 5520008, 5530008, 5530007
2949, 5520008, 5520009, 5530009, 5530008
2950, 5520009, 5520010, 5530010, 5530009
2951, 5520010, 5520011, 5530011, 5530010
2952, 5520011, 5520012, 5530012, 5530011
2953, 5520012, 5520013, 5530013, 5530012
2954, 5520013, 5520014, 5530014, 5530013
2955, 5520014, 5520015, 5530015, 5530014
2956, 5520015, 5520016, 5530016, 5530015
2957, 5520016, 5520017, 5530017, 5530016
2958, 5520017, 5520018, 5530018, 5530017
2959, 5520018, 5520019, 5530019, 5530018
2960, 5520019, 5520020, 5530020, 5530019
2961, 5520020, 5520021, 5530021, 5530020
2962, 5520021, 5520022, 5530022, 5530021
2963, 5520022, 5520023, 5530023, 5530022
2964, 5520023, 5520024, 5530024, 5530023
2965, 5520024, 5520025, 5530025, 5530024
2966, 5520025, 5520026, 5530026, 5530025
2967, 5520026, 5520027, 5530027, 5530026
2968, 5520027, 5520028, 5530028, 5530027
2969, 5520028, 5520029, 5530029, 5530028
2970, 5520029, 5520030, 5530030, 5530029
2971, 5520030, 5520031, 5530031, 5530030
2972, 5520031, 5520032, 5530032, 5530031
2973, 5520032, 5520033, 5530033, 5530032
2974, 5520033, 5520034, 5530034, 5530033
2975, 5520034, 5520035, 5530035, 5530034
2976, 5520035, 5520036, 5530036, 5530035
2977, 5520036, 5520037, 5530037, 5530036
2978, 5520037, 5520038, 5530038, 5530037
2979, 5520038, 5520039, 5530039, 5530038
2980, 5520039, 5520040, 5530040, 5530039
2981, 5520040, 5520041, 5530041, 5530040
2982, 5520041, 5520042, 5530042, 5530041
2983, 5520042, 5520043, 5530043, 5530042
2984, 5520043, 5520044, 5530044, 5530043
2985, 5520044, 5520045, 5530045, 5530044
2986, 5530000, 5530001, 5540001, 5540000
2987, 5530001, 5530002, 5540002, 5540001
2988, 5530002, 5530003, 5540003, 5540002
2989, 5530003, 5530004, 5540004, 5540003
2990, 5530004, 5530005, 5540005, 5540004
2991, 5530005, 5530006, 5540006, 5540005
2992, 5530006, 5530007, 5540007, 5540006
2993, 5530007, 5530008, 5540008, 5540007
2994, 5530008, 5530009, 5540009, 5540008
2995, 5530009, 5530010, 5540010, 5540009
2996, 5530010, 5530011, 5540011, 5540010
2997, 5530011, 5530012, 5540012, 5540011
2998, 5530012, 5530013, 5540013, 5540012
2999, 5530013, 5530014, 5540014, 5540013
3000, 5530014, 5530015, 5540015, 5540014
3001, 5530015, 5530016, 5540016, 5540015
3002, 5530016, 5530017, 5540017, 5540016
3003, 5530017, 5530018, 5540018, 5540017
3004, 5530018, 5530019, 5540019, 5540018
3005, 5530019, 5530020, 5540020, 5540019
3006, 5530020, 5530021, 5540021, 5540020
3007, 5530021, 5530022, 5540022, 5540021
3008, 5530022, 5530023, 5540023, 5540022
3009, 5530023, 5530024, 5540024, 5540023
3010, 5530024, 5530025, 5540025, 5540024
3011, 5530025, 5530026, 5540026, 5540025
3012, 5530026, 5530027, 5540027, 5540026
3013, 5530027, 5530028, 5540028, 5540027
3014, 5530028, 5530029, 5540029, 5540028
3015, 5530029, 5530030, 5540030, 5540029
3016, 5530030, 5530031, 5540031, 5540030
3017, 5530031, 5530032, 5540032, 5540031
3018, 5530032, 5530033, 5540033, 5540032
3019, 5530033, 5530034, 5540034, 5540033
3020, 5530034, 5530035, 5540035, 5540034
3021, 5530035, 5530036, 5540036, 5540035
3022, 5530036, 5530037, 5540037, 5540036
3023, 5530037, 5530038, 5540038, 5540037
3024, 5530038, 5530039, 5540039, 5540038
3025, 5530039, 5530040, 5540040, 5540039
3026, 5530040, 5530041, 5540041, 5540040
3027, 5530041, 5530042, 5540042, 5540041
3028, 5530042, 5530043, 5540043, 5540042
3029, 5530043, 5530044, 5540044, 5540043
3030, 5530044, 5530045, 5540045, 5540044
3031, 5540000, 5540001, 5550001, 5550000
3032, 5540001, 5540002, 5550002, 5550001
3033, 5540002, 5540003, 5550003, 5550002
3034, 5540003, 5540004, 5550004, 5550003
3035, 5540004, 5540005, 5550005, 5550004
3036, 5540005, 5540006, 5550006, 5550005
3037, 5540006, 5540007, 5550007, 5550006
3038, 5540007, 5540008, 5550008, 5550007
3039, 5540008, 5540009, 5550009, 5550008
3040, 5540009, 5540010, 5550010, 5550009
3041, 5540010, 5540011, 5550011, 5550010
3042, 5540011, 5540012, 5550012, 5550011
3043, 5540012, 5540013, 5550013, 5550012
3044, 5540013, 5540014, 5550014, 5550013
3045, 5540014, 5540015, 5550015, 5550014
3046, 5540015, 5540016, 5550016, 5550015
3047, 5540016, 5540017, 5550017, 5550016
3048, 5540017, 5540018, 5550018, 5550017
3049, 5540018, 5540019, 5550019, 5550018
3050, 5540019, 5540020, 5550020, 5550019
3051, 5540020, 5540021, 5550021, 5550020
3052, 5540021, 5540022, 5550022, 5550021
3053, 5540022, 5540023, 5550023, 5550022
3054, 5540023, 5540024, 5550024, 5550023
3055, 5540024, 5540025, 5550025, 5550024
3056, 5540025, 5540026, 5550026, 5550025
3057, 5540026, 5540027, 5550027, 5550026
3058, 5540027, 5540028, 5550028, 5550027
3059, 5540028, 5540029, 5550029, 5550028
3060, 5540029, 5540030, 5550030, 5550029
3061, 5540030, 5540031, 5550031, 5550030
3062, 5540031, 5540032, 5550032, 5550031
3063, 5540032, 5540033, 5550033, 5550032
3064, 5540033, 5540034, 5550034, 5550033
3065, 5540034, 5540035, 5550035, 5550034
3066, 5540035, 5540036, 5550036, 5550035
3067, 5540036, 5540037, 5550037, 5550036
3068, 5540037, 5540038, 5550038, 5550037
3069, 5540038, 5540039, 5550039, 5550038
3070, 5540039, 5540040, 5550040, 5550039
3071, 5540040, 5540041, 5550041, 5550040
3072, 5540041, 5540042, 5550042, 5550041
3073, 5540042, 5540043, 5550043, 5550042
3074, 5540043, 5540044, 5550044, 5550043
3075, 5540044, 5540045, 5550045, 5550044
3076, 5550000, 5550001, 5560001, 5560000
3077, 5550001, 5550002, 5560002, 5560001
3078, 5550002, 5550003, 5560003, 5560002
3079, 5550003, 5550004, 5560004, 5560003
3080, 5550004, 5550005, 5560005, 5560004
3081, 5550005, 5550006, 5560006, 5560005
3082, 5550006, 5550007, 5560007, 5560006
3083, 5550007, 5550008, 5560008, 5560007
3084, 5550008, 5550009, 5560009, 5560008
3085, 5550009, 5550010, 5560010, 5560009
3086, 5550010, 5550011, 5560011, 5560010
3087, 5550011, 5550012, 5560012, 5560011
3088, 5550012, 5550013, 5560013, 5560012
3089, 5550013, 5550014, 5560014, 5560013
3090, 5550014, 5550015, 5560015, 5560014
3091, 5550015, 5550016, 5560016, 5560015
3092, 5550016, 5550017, 5560017, 5560016
3093, 5550017, 5550018, 5560018, 5560017
3094, 5550018, 5550019, 5560019, 5560018
3095, 5550019, 5550020, 5560020, 5560019
3096, 5550020, 5550021, 5560021, 5560020
3097, 5550021, 5550022, 5560022, 5560021
3098, 5550022, 5550023, 5560023, 5560022
3099, 5550023, 5550024, 5560024, 5560023
3100, 5550024, 5550025, 5560025, 5560024
3101, 5550025, 5550026, 5560026, 5560025
3102, 5550026, 5550027, 5560027, 5560026
3103, 5550027, 5550028, 5560028, 5560027
3104, 5550028, 5550029, 5560029, 5560028
3105, 5550029, 5550030, 5560030, 5560029
3106, 5550030, 5550031, 5560031, 5560030
3107, 5550031, 5550032, 5560032, 5560031
3108, 5550032, 5550033, 5560033, 5560032
3109, 5550033, 5550034, 5560034, 5560033
3110, 5550034, 5550035, 5560035, 5560034
3111, 5550035, 5550036, 5560036, 5560035
3112, 5550036, 5550037, 5560037, 5560036
3113, 5550037, 5550038, 5560038, 5560037
3114, 5550038, 5550039, 5560039, 5560038
3115, 5550039, 5550040, 5560040, 5560039
3116, 5550040, 5550041, 5560041, 5560040
3117, 5550041, 5550042, 5560042, 5560041
3118, 5550042, 5550043, 5560043, 5560042
3119, 5550043, 5550044, 5560044, 5560043
3120, 5550044, 5550045, 5560045, 5560044
3121, 5560000, 5560001, 5570001, 5570000
3122, 5560001, 5560002, 5570002, 5570001
3123, 5560002, 5560003, 5570003, 5570002
3124, 5560003, 5560004, 5570004, 5570003
3125, 5560004, 5560005, 5570005, 5570004
3126, 5560005, 5560006, 5570006, 5570005
3127, 5560006, 5560007, 5570007, 5570006
3128, 5560007, 5560008, 5570008, 5570007
3129, 5560008, 5560009, 5570009, 5570008
3130, 5560009, 5560010, 5570010, 5570009
3131, 5560010, 5560011, 5570011, 5570010
3132, 5560011, 5560012, 5570012, 5570011
3133, 5560012, 5560013, 5570013, 5570012
3134, 5560013, 5560014, 5570014, 5570013
3135, 5560014, 5560015, 5570015, 5570014
3136, 5560015, 5560016, 5570016, 5570015
3137, 5560016, 5560017, 5570017, 5570016
3138, 5560017, 5560018, 5570018, 5570017
3139, 5560018, 5560019, 5570019, 5570018
3140, 5560019, 5560020, 5570020, 5570019
3141, 5560020, 5560021, 5570021, 5570020
3142, 5560021, 5560022, 5570022, 5570021
3143, 5560022, 5560023, 5570023, 5570022
3144, 5560023, 5560024, 5570024, 5570023
3145, 5560024, 5560025, 5570025, 5570024
3146, 5560025, 5560026, 5570026, 5570025
3147, 5560026, 5560027, 5570027, 5570026
3148, 5560027, 5560028, 5570028, 5570027
3149, 5560028, 5560029, 5570029, 5570028
3150, 5560029, 5560030, 5570030, 5570029
3151, 5560030, 5560031, 5570031, 5570030
3152, 5560031, 5560032, 5570032, 5570031
3153, 5560032, 5560033, 5570033, 5570032
3154, 5560033, 5560034, 5570034, 5570033
3155, 5560034, 5560035, 5570035, 5570034
3156, 5560035, 5560036, 5570036, 5570035
3157, 5560036, 5560037, 5570037, 5570036
3158, 5560037, 5560038, 5570038, 5570037
3159, 5560038, 5560039, 5570039, 5570038
3160, 5560039, 5560040, 5570040, 5570039
3161, 5560040, 5560041, 5570041, 5570040
3162, 5560041, 5560042, 5570042, 5570041
3163, 5560042, 5560043, 5570043, 5570042
3164, 5560043, 5560044, 5570044, 5570043
3165, 5560044, 5560045, 5570045, 5570044
3166, 5570000, 5570001, 5580001, 5580000
3167, 5570001, 5570002, 5580002, 5580001
3168, 5570002, 5570003, 5580003, 5580002
3169, 5570003, 5570004, 5580004, 5580003
3170, 5570004, 5570005, 5580005, 5580004
3171, 5570005, 5570006, 5580006, 5580005
3172, 5570006, 5570007, 5580007, 5580006
3173, 5570007, 5570008, 5580008, 5580007
3174, 5570008, 5570009, 5580009, 5580008
3175, 5570009, 5570010, 5580010, 5580009
3176, 5570010, 5570011, 5580011, 5580010
3177, 5570011, 5570012, 5580012, 5580011
3178, 5570012, 5570013, 5580013, 5580012
3179, 5570013, 5570014, 5580014, 5580013
3180, 5570014, 5570015, 5580015, 5580014
3181, 5570015, 5570016, 5580016, 5580015
3182, 5570016, 5570017, 5580017, 5580016
3183, 5570017, 5570018, 5580018, 5580017
3184, 5570018, 5570019, 5580019, 5580018
3185, 5570019, 5570020, 5580020, 5580019
3186, 5570020, 5570021, 5580021, 5580020
3187, 5570021, 5570022, 5580022, 5580021
3188, 5570022, 5570023, 5580023, 5580022
3189, 5570023, 5570024, 5580024, 5580023
3190, 5570024, 5570025, 5580025, 5580024
3191, 5570025, 5570026, 5580026, 5580025
3192, 5570026, 5570027, 5580027, 5580026
3193, 5570027, 5570028, 5580028, 5580027
3194, 5570028, 5570029, 5580029, 5580028
3195, 5570029, 5570030, 5580030, 5580029
3196, 5570030, 5570031, 5580031, 5580030
3197, 5570031, 5570032, 5580032, 5580031
3198, 5570032, 5570033, 5580033, 5580032
3199, 5570033, 5570034, 5580034, 5580033
3200, 5570034, 5570035, 5580035, 5580034
3201, 5570035, 5570036, 5580036, 5580035
3202, 5570036, 5570037, 5580037, 5580036
3203, 5570037, 5570038, 5580038, 5580037
3204, 5570038, 5570039, 5580039, 5580038
3205, 5570039, 5570040, 5580040, 5580039
3206, 5570040, 5570041, 5580041, 5580040
3207, 5570041, 5570042, 5580042, 5580041
3208, 5570042, 5570043, 5580043, 5580042
3209, 5570043, 5570044, 5580044, 5580043
3210, 5570044, 5570045, 5580045, 5580044
3211, 5580000, 5580001, 5590001, 5590000
3212, 5580001, 5580002, 5590002, 5590001
3213, 5580002, 5580003, 5590003, 5590002
3214, 5580003, 5580004, 5590004, 5590003
3215, 5580004, 5580005, 5590005, 5590004
3216, 5580005, 5580006, 5590006, 5590005
3217, 5580006, 5580007, 5590007, 5590006
3218, 5580007, 5580008, 5590008, 5590007
3219, 5580008, 5580009, 5590009, 5590008
3220, 5580009, 5580010, 5590010, 5590009
3221, 5580010, 5580011, 5590011, 5590010
3222, 5580011, 5580012, 5590012, 5590011
3223, 5580012, 5580013, 5590013, 5590012
3224, 5580013, 5580014, 5590014, 5590013
3225, 5580014, 5580015, 5590015, 5590014
3226, 5580015, 5580016, 5590016, 5590015
3227, 5580016, 5580017, 5590017, 5590016
3228, 5580017, 5580018, 5590018, 5590017
3229, 5580018, 5580019, 5590019, 5590018
3230, 5580019, 5580020, 5590020, 5590019
3231, 5580020, 5580021, 5590021, 5590020
3232, 5580021, 5580022, 5590022, 5590021
3233, 5580022, 5580023, 5590023, 5590022
3234, 5580023, 5580024, 5590024, 5590023
3235, 5580024, 5580025, 5590025, 5590024
3236, 5580025, 5580026, 5590026, 5590025
3237, 5580026, 5580027, 5590027, 5590026
3238, 5580027, 5580028, 5590028, 5590027
3239, 5580028, 5580029, 5590029, 5590028
3240, 5580029, 5580030, 5590030, 5590029
3241, 5580030, 5580031, 5590031, 5590030
3242, 5580031, 5580032, 5590032, 5590031
3243, 5580032, 5580033, 5590033, 5590032
3244, 5580033, 5580034, 5590034, 5590033
3245, 5580034, 5580035, 5590035, 5590034
3246, 5580035, 5580036, 5590036, 5590035
3247, 5580036, 5580037, 5590037, 5590036
3248, 5580037, 5580038, 5590038, 5590037
3249, 5580038, 5580039, 5590039, 5590038
3250, 5580039, 5580040, 5590040, 5590039
3251, 5580040, 5580041, 5590041, 5590040
3252, 5580041, 5580042, 5590042, 5590041
3253, 5580042, 5580043, 5590043, 5590042
3254, 5580043, 5580044, 5590044, 5590043
3255, 5580044, 5580045, 5590045, 5590044
3256, 5590000, 5590001, 5600001, 5600000
3257, 5590001, 5590002, 5600002, 5600001
3258, 5590002, 5590003, 5600003, 5600002
3259, 5590003, 5590004, 5600004, 5600003
3260, 5590004, 5590005, 5600005, 5600004
3261, 5590005, 5590006, 5600006, 5600005
3262, 5590006, 5590007, 5600007, 5600006
3263, 5590007, 5590008, 5600008, 5600007
3264, 5590008, 5590009, 5600009, 5600008
3265, 5590009, 5590010, 5600010, 5600009
3266, 5590010, 5590011, 5600011, 5600010
3267, 5590011, 5590012, 5600012, 5600011
3268, 5590012, 5590013, 5600013, 5600012
3269, 5590013, 5590014, 5600014, 5600013
3270, 5590014, 5590015, 5600015, 5600014
3271, 5590015, 5590016, 5600016, 5600015
3272, 5590016, 5590017, 5600017, 5600016
3273, 5590017, 5590018, 5600018, 5600017
3274, 5590018, 5590019, 5600019, 5600018
3275, 5590019, 5590020, 5600020, 5600019
3276, 5590020, 5590021, 5600021, 5600020
3277, 5590021, 5590022, 5600022, 5600021
3278, 5590022, 5590023, 5600023, 5600022
3279, 5590023, 5590024, 5600024, 5600023
3280, 5590024, 5590025, 5600025, 5600024
3281, 5590025, 5590026, 5600026, 5600025
3282, 5590026, 5590027, 5600027, 5600026
3283, 5590027, 5590028, 5600028, 5600027
3284, 5590028, 5590029, 5600029, 5600028
3285, 5590029, 5590030, 5600030, 5600029
3286, 5590030, 5590031, 5600031, 5600030
3287, 5590031, 5590032, 5600032, 5600031
3288, 5590032, 5590033, 5600033, 5600032
3289, 5590033, 5590034, 5600034, 5600033
3290, 5590034, 5590035, 5600035, 5600034
3291, 5590035, 5590036, 5600036, 5600035
3292, 5590036, 5590037, 5600037, 5600036
3293, 5590037, 5590038, 5600038, 5600037
3294, 5590038, 5590039, 5600039, 5600038
3295, 5590039, 5590040, 5600040, 5600039
3296, 5590040, 5590041, 5600041, 5600040
3297, 5590041, 5590042, 5600042, 5600041
3298, 5590042, 5590043, 5600043, 5600042
3299, 5590043, 5590044, 5600044, 5600043
3300, 5590044, 5590045, 5600045, 5600044
*ELEMENT, TYPE=COHAX4
3301, 11, 10011, 5010000, 5000000
3302, 10011, 20011, 5020000, 5010000
3303, 20011, 30011, 5030000, 5020000
3304, 30011, 40011, 5040000, 5030000
3305, 40011, 50011, 5050000, 5040000
3306, 50011, 60011, 5060000, 5050000
3307, 60011, 70011, 5070000, 5060000
3308, 70011, 80011, 5080000, 5070000
3309, 80011, 90011, 5090000, 5080000
3310, 90011, 100011, 5100000, 5090000
3311, 100011, 110011, 5110000, 5100000
3312, 110011, 120011, 5120000, 5110000
3313, 120011, 130011, 5130000, 5120000
3314, 130011, 140011, 5140000, 5130000
3315, 140011, 150011, 5150000, 5140000
3316, 150011, 160011, 5160000, 5150000
3317, 160011, 170011, 5170000, 5160000
3318, 170011, 180011, 5180000, 5170000
3319, 180011, 190011, 5190000, 5180000
3320, 190011, 200011, 5200000, 5190000
3321, 200011, 210011, 5210000, 5200000
3322, 210011, 220011, 5220000, 5210000
3323, 220011, 230011, 5230000, 5220000
3324, 230011, 240011, 5240000, 5230000
3325, 240011, 250011, 5250000, 5240000
3326, 250011, 260011, 5260000, 5250000
3327, 260011, 270011, 5270000, 5260000
3328, 270011, 280011, 5280000, 5270000
3329, 280011, 290011, 5290000, 5280000
3330, 290011, 300011, 5300000, 5290000
3331, 300011, 310011, 5310000, 5300000
3332, 310011, 320011, 5320000, 5310000
3333, 320011, 330011, 5330000, 5320000
3334, 330011, 340011, 5340000, 5330000
3335, 340011, 350011, 5350000, 5340000
3336, 350011, 360011, 5360000, 5350000
3337, 360011, 370011, 5370000, 5360000
3338, 370011, 380011, 5380000, 5370000
3339, 380011, 390011, 5390000, 5380000
3340, 390011, 400011, 5400000, 5390000
3341, 400011, 410011, 5410000, 5400000
3342, 410011, 420011, 5420000, 5410000
3343, 420011, 430011, 5430000, 5420000
3344, 430011, 440011, 5440000, 5430000
3345, 440011, 450011, 5450000, 5440000
3346, 450011, 460011, 5460000, 5450000
3347, 460011, 470011, 5470000, 5460000
3348, 470011, 480011, 5480000, 5470000
3349, 480011, 490011, 5490000, 5480000
3350, 490011, 500011, 5500000, 5490000
3351, 500011, 510011, 5510000, 5500000
3352, 510011, 520011, 5520000, 5510000
3353, 520011, 530011, 5530000, 5520000
3354, 530011, 540011, 5540000, 5530000
3355, 540011, 550011, 5550000, 5540000
3356, 550011, 560011, 5560000, 5550000
3357, 560011, 570011, 5570000, 5560000
3358, 570011, 580011, 5580000, 5570000
3359, 580011, 590011, 5590000, 5580000
3360, 590011, 600011, 5600000, 5590000
*ELSET, ELSET=CORE, GENERATE
1, 600, 1
*ELSET, ELSET=OUTER, GENERATE
601, 3300, 1
*ELSET, ELSET=BULK
CORE, OUTER
*ELSET, ELSET=COH, GENERATE
3301, 3360, 1
*SURFACE, TYPE=ELEMENT, NAME=SKIN_SURF
BULK,
*NSET, NSET=NBOT
1, 2, 3, 4, 5, 6, 7, 8, 9, 10, 11, 5000000
5000001, 5000002, 5000003, 5000004, 5000005, 5000006, 5000007, 5000008, 5000009, 5000010, 5000011, 5000012
5000013, 5000014, 5000015, 5000016, 5000017, 5000018, 5000019, 5000020, 5000021, 5000022, 5000023, 5000024
5000025, 5000026, 5000027, 5000028, 5000029, 5000030, 5000031, 5000032, 5000033, 5000034, 5000035, 5000036
5000037, 5000038, 5000039, 5000040, 5000041, 5000042, 5000043, 5000044, 5000045
*NSET, NSET=NAXIS, GENERATE
1, 600001, 10000
*NSET, NSET=NRIGHT, GENERATE
5000045, 5600045, 10000
*NODE
9999, 0.0, 820.0000
*NSET, NSET=NREF
9999,
*SURFACE, TYPE=SEGMENTS, NAME=NEEDLE, FILLET RADIUS=5.0
START, 50.0000, 1420.0000
LINE,  50.0000, 870.0000
CIRCL, 0.0, 820.0000, 0.0, 870.0000
*RIGID BODY, ANALYTICAL SURFACE=NEEDLE, REF NODE=NREF
*MATERIAL, NAME=SKIN
*DENSITY
1.1e-15,
*HYPERELASTIC, NEO HOOKE
0.05, 0.5
*SOLID SECTION, ELSET=BULK, MATERIAL=SKIN
*MATERIAL, NAME=COHMAT
*DENSITY
1.1e-15,
*USER MATERIAL, CONSTANTS=5
4, 2, 10, 1, 1.0
*DEPVAR, DELETE=6
7
1, EPSN, normal nominal strain
2, EPSS1, shear1 nominal strain
3, EPSS2, shear2 nominal strain
4, DMAX, max effective separation
5, SDEG, damage
6, STATUS, delete flag
7, DELM, effective separation
*COHESIVE SECTION, ELSET=COH, MATERIAL=COHMAT, RESPONSE=TRACTION SEPARATION, THICKNESS=SPECIFIED
1,
*SURFACE INTERACTION, NAME=IPROP
*FRICTION
0.1,
*SURFACE BEHAVIOR, PRESSURE-OVERCLOSURE=HARD
*BOUNDARY
NBOT, 2, 2
NAXIS, 1, 1
NRIGHT, 1, 1
NREF, 1, 1
NREF, 6, 6
*AMPLITUDE, NAME=PUSH, DEFINITION=SMOOTH STEP
0.0, 0.0, 0.02, 1.0
*STEP, NAME=CUT
*DYNAMIC, EXPLICIT
, 0.02
*FIXED MASS SCALING, DT=2.0e-7, TYPE=BELOW MIN
*BOUNDARY, AMPLITUDE=PUSH
NREF, 2, 2, -500.0
*CONTACT
*CONTACT INCLUSIONS, ALL EXTERIOR
*CONTACT INCLUSIONS
NEEDLE, SKIN_SURF
*CONTACT PROPERTY ASSIGNMENT
 ,  , IPROP
*OUTPUT, FIELD, NUMBER INTERVAL=25
*ELEMENT OUTPUT, ELSET=BULK
S, LE
*ELEMENT OUTPUT, ELSET=COH
SDV, STATUS
*NODE OUTPUT
U, V
*OUTPUT, HISTORY, TIME INTERVAL=1.0e-4
*NODE OUTPUT, NSET=NREF
U2, V2, RF2
*ENERGY OUTPUT
ALLIE, ALLKE, ALLSE, ALLDMD
*END STEP
