*HEADING
[A-2] Deformable thick-wall shell microneedle (CAX4R tube)
Units: um, uN, MPa, s ; needle=deformable 2D solid, wall=20um
*NODE
1, 0.0000, 0.0000
2, 5.0000, 0.0000
3, 10.0000, 0.0000
4, 15.0000, 0.0000
5, 20.0000, 0.0000
6, 25.0000, 0.0000
7, 30.0000, 0.0000
8, 35.0000, 0.0000
9, 40.0000, 0.0000
10, 45.0000, 0.0000
11, 50.0000, 0.0000
12, 55.0000, 0.0000
13, 60.0000, 0.0000
14, 65.0000, 0.0000
15, 70.0000, 0.0000
16, 75.0000, 0.0000
17, 80.0000, 0.0000
18, 85.0000, 0.0000
19, 90.0000, 0.0000
20, 95.0000, 0.0000
21, 100.0000, 0.0000
22, 105.0000, 0.0000
23, 110.0000, 0.0000
24, 115.0000, 0.0000
25, 120.0000, 0.0000
26, 125.0000, 0.0000
27, 130.0000, 0.0000
28, 135.0000, 0.0000
29, 140.0000, 0.0000
30, 145.0000, 0.0000
31, 150.0000, 0.0000
32, 155.0000, 0.0000
33, 160.0000, 0.0000
34, 165.0000, 0.0000
35, 170.0000, 0.0000
36, 175.0000, 0.0000
37, 180.0000, 0.0000
38, 185.0000, 0.0000
39, 190.0000, 0.0000
40, 195.0000, 0.0000
41, 200.0000, 0.0000
42, 205.0000, 0.0000
43, 210.0000, 0.0000
44, 215.0000, 0.0000
45, 220.0000, 0.0000
46, 225.0000, 0.0000
47, 230.0000, 0.0000
48, 235.0000, 0.0000
49, 240.0000, 0.0000
50, 245.0000, 0.0000
51, 250.0000, 0.0000
52, 255.0000, 0.0000
53, 260.0000, 0.0000
54, 265.0000, 0.0000
55, 270.0000, 0.0000
56, 275.0000, 0.0000
57, 280.0000, 0.0000
58, 285.0000, 0.0000
59, 290.0000, 0.0000
60, 295.0000, 0.0000
61, 300.0000, 0.0000
62, 306.0000, 0.0000
63, 313.2000, 0.0000
64, 321.8400, 0.0000
65, 332.2080, 0.0000
66, 344.6496, 0.0000
67, 359.5795, 0.0000
68, 377.4954, 0.0000
69, 398.9945, 0.0000
70, 424.7934, 0.0000
71, 455.7521, 0.0000
72, 492.9025, 0.0000
73, 537.4830, 0.0000
74, 590.9796, 0.0000
75, 655.1755, 0.0000
76, 732.2106, 0.0000
77, 824.6528, 0.0000
78, 935.5833, 0.0000
79, 1068.7000, 0.0000
80, 1228.4400, 0.0000
81, 1420.1280, 0.0000
82, 1650.1536, 0.0000
83, 1926.1843, 0.0000
84, 2000.0000, 0.0000
100001, 0.0000, 130.8745
100002, 5.0000, 130.8745
100003, 10.0000, 130.8745
100004, 15.0000, 130.8745
100005, 20.0000, 130.8745
100006, 25.0000, 130.8745
100007, 30.0000, 130.8745
100008, 35.0000, 130.8745
100009, 40.0000, 130.8745
100010, 45.0000, 130.8745
100011, 50.0000, 130.8745
100012, 55.0000, 130.8745
100013, 60.0000, 130.8745
100014, 65.0000, 130.8745
100015, 70.0000, 130.8745
100016, 75.0000, 130.8745
100017, 80.0000, 130.8745
100018, 85.0000, 130.8745
100019, 90.0000, 130.8745
100020, 95.0000, 130.8745
100021, 100.0000, 130.8745
100022, 105.0000, 130.8745
100023, 110.0000, 130.8745
100024, 115.0000, 130.8745
100025, 120.0000, 130.8745
100026, 125.0000, 130.8745
100027, 130.0000, 130.8745
100028, 135.0000, 130.8745
100029, 140.0000, 130.8745
100030, 145.0000, 130.8745
100031, 150.0000, 130.8745
100032, 155.0000, 130.8745
100033, 160.0000, 130.8745
100034, 165.0000, 130.8745
100035, 170.0000, 130.8745
100036, 175.0000, 130.8745
100037, 180.0000, 130.8745
100038, 185.0000, 130.8745
100039, 190.0000, 130.8745
100040, 195.0000, 130.8745
100041, 200.0000, 130.8745
100042, 205.0000, 130.8745
100043, 210.0000, 130.8745
100044, 215.0000, 130.8745
100045, 220.0000, 130.8745
100046, 225.0000, 130.8745
100047, 230.0000, 130.8745
100048, 235.0000, 130.8745
100049, 240.0000, 130.8745
100050, 245.0000, 130.8745
100051, 250.0000, 130.8745
100052, 255.0000, 130.8745
100053, 260.0000, 130.8745
100054, 265.0000, 130.8745
100055, 270.0000, 130.8745
100056, 275.0000, 130.8745
100057, 280.0000, 130.8745
100058, 285.0000, 130.8745
100059, 290.0000, 130.8745
100060, 295.0000, 130.8745
100061, 300.0000, 130.8745
100062, 306.0000, 130.8745
100063, 313.2000, 130.8745
100064, 321.8400, 130.8745
100065, 332.2080, 130.8745
100066, 344.6496, 130.8745
100067, 359.5795, 130.8745
100068, 377.4954, 130.8745
100069, 398.9945, 130.8745
100070, 424.7934, 130.8745
100071, 455.7521, 130.8745
100072, 492.9025, 130.8745
100073, 537.4830, 130.8745
100074, 590.9796, 130.8745
100075, 655.1755, 130.8745
100076, 732.2106, 130.8745
100077, 824.6528, 130.8745
100078, 935.5833, 130.8745
100079, 1068.7000, 130.8745
100080, 1228.4400, 130.8745
100081, 1420.1280, 130.8745
100082, 1650.1536, 130.8745
100083, 1926.1843, 130.8745
100084, 2000.0000, 130.8745
200001, 0.0000, 433.7496
200002, 5.0000, 433.7496
200003, 10.0000, 433.7496
200004, 15.0000, 433.7496
200005, 20.0000, 433.7496
200006, 25.0000, 433.7496
200007, 30.0000, 433.7496
200008, 35.0000, 433.7496
200009, 40.0000, 433.7496
200010, 45.0000, 433.7496
200011, 50.0000, 433.7496
200012, 55.0000, 433.7496
200013, 60.0000, 433.7496
200014, 65.0000, 433.7496
200015, 70.0000, 433.7496
200016, 75.0000, 433.7496
200017, 80.0000, 433.7496
200018, 85.0000, 433.7496
200019, 90.0000, 433.7496
200020, 95.0000, 433.7496
200021, 100.0000, 433.7496
200022, 105.0000, 433.7496
200023, 110.0000, 433.7496
200024, 115.0000, 433.7496
200025, 120.0000, 433.7496
200026, 125.0000, 433.7496
200027, 130.0000, 433.7496
200028, 135.0000, 433.7496
200029, 140.0000, 433.7496
200030, 145.0000, 433.7496
200031, 150.0000, 433.7496
200032, 155.0000, 433.7496
200033, 160.0000, 433.7496
200034, 165.0000, 433.7496
200035, 170.0000, 433.7496
200036, 175.0000, 433.7496
200037, 180.0000, 433.7496
200038, 185.0000, 433.7496
200039, 190.0000, 433.7496
200040, 195.0000, 433.7496
200041, 200.0000, 433.7496
200042, 205.0000, 433.7496
200043, 210.0000, 433.7496
200044, 215.0000, 433.7496
200045, 220.0000, 433.7496
200046, 225.0000, 433.7496
200047, 230.0000, 433.7496
200048, 235.0000, 433.7496
200049, 240.0000, 433.7496
200050, 245.0000, 433.7496
200051, 250.0000, 433.7496
200052, 255.0000, 433.7496
200053, 260.0000, 433.7496
200054, 265.0000, 433.7496
200055, 270.0000, 433.7496
200056, 275.0000, 433.7496
200057, 280.0000, 433.7496
200058, 285.0000, 433.7496
200059, 290.0000, 433.7496
200060, 295.0000, 433.7496
200061, 300.0000, 433.7496
200062, 306.0000, 433.7496
200063, 313.2000, 433.7496
200064, 321.8400, 433.7496
200065, 332.2080, 433.7496
200066, 344.6496, 433.7496
200067, 359.5795, 433.7496
200068, 377.4954, 433.7496
200069, 398.9945, 433.7496
200070, 424.7934, 433.7496
200071, 455.7521, 433.7496
200072, 492.9025, 433.7496
200073, 537.4830, 433.7496
200074, 590.9796, 433.7496
200075, 655.1755, 433.7496
200076, 732.2106, 433.7496
200077, 824.6528, 433.7496
200078, 935.5833, 433.7496
200079, 1068.7000, 433.7496
200080, 1228.4400, 433.7496
200081, 1420.1280, 433.7496
200082, 1650.1536, 433.7496
200083, 1926.1843, 433.7496
200084, 2000.0000, 433.7496
300001, 0.0000, 666.7305
300002, 5.0000, 666.7305
300003, 10.0000, 666.7305
300004, 15.0000, 666.7305
300005, 20.0000, 666.7305
300006, 25.0000, 666.7305
300007, 30.0000, 666.7305
300008, 35.0000, 666.7305
300009, 40.0000, 666.7305
300010, 45.0000, 666.7305
300011, 50.0000, 666.7305
300012, 55.0000, 666.7305
300013, 60.0000, 666.7305
300014, 65.0000, 666.7305
300015, 70.0000, 666.7305
300016, 75.0000, 666.7305
300017, 80.0000, 666.7305
300018, 85.0000, 666.7305
300019, 90.0000, 666.7305
300020, 95.0000, 666.7305
300021, 100.0000, 666.7305
300022, 105.0000, 666.7305
300023, 110.0000, 666.7305
300024, 115.0000, 666.7305
300025, 120.0000, 666.7305
300026, 125.0000, 666.7305
300027, 130.0000, 666.7305
300028, 135.0000, 666.7305
300029, 140.0000, 666.7305
300030, 145.0000, 666.7305
300031, 150.0000, 666.7305
300032, 155.0000, 666.7305
300033, 160.0000, 666.7305
300034, 165.0000, 666.7305
300035, 170.0000, 666.7305
300036, 175.0000, 666.7305
300037, 180.0000, 666.7305
300038, 185.0000, 666.7305
300039, 190.0000, 666.7305
300040, 195.0000, 666.7305
300041, 200.0000, 666.7305
300042, 205.0000, 666.7305
300043, 210.0000, 666.7305
300044, 215.0000, 666.7305
300045, 220.0000, 666.7305
300046, 225.0000, 666.7305
300047, 230.0000, 666.7305
300048, 235.0000, 666.7305
300049, 240.0000, 666.7305
300050, 245.0000, 666.7305
300051, 250.0000, 666.7305
300052, 255.0000, 666.7305
300053, 260.0000, 666.7305
300054, 265.0000, 666.7305
300055, 270.0000, 666.7305
300056, 275.0000, 666.7305
300057, 280.0000, 666.7305
300058, 285.0000, 666.7305
300059, 290.0000, 666.7305
300060, 295.0000, 666.7305
300061, 300.0000, 666.7305
300062, 306.0000, 666.7305
300063, 313.2000, 666.7305
300064, 321.8400, 666.7305
300065, 332.2080, 666.7305
300066, 344.6496, 666.7305
300067, 359.5795, 666.7305
300068, 377.4954, 666.7305
300069, 398.9945, 666.7305
300070, 424.7934, 666.7305
300071, 455.7521, 666.7305
300072, 492.9025, 666.7305
300073, 537.4830, 666.7305
300074, 590.9796, 666.7305
300075, 655.1755, 666.7305
300076, 732.2106, 666.7305
300077, 824.6528, 666.7305
300078, 935.5833, 666.7305
300079, 1068.7000, 666.7305
300080, 1228.4400, 666.7305
300081, 1420.1280, 666.7305
300082, 1650.1536, 666.7305
300083, 1926.1843, 666.7305
300084, 2000.0000, 666.7305
400001, 0.0000, 845.9465
400002, 5.0000, 845.9465
400003, 10.0000, 845.9465
400004, 15.0000, 845.9465
400005, 20.0000, 845.9465
400006, 25.0000, 845.9465
400007, 30.0000, 845.9465
400008, 35.0000, 845.9465
400009, 40.0000, 845.9465
400010, 45.0000, 845.9465
400011, 50.0000, 845.9465
400012, 55.0000, 845.9465
400013, 60.0000, 845.9465
400014, 65.0000, 845.9465
400015, 70.0000, 845.9465
400016, 75.0000, 845.9465
400017, 80.0000, 845.9465
400018, 85.0000, 845.9465
400019, 90.0000, 845.9465
400020, 95.0000, 845.9465
400021, 100.0000, 845.9465
400022, 105.0000, 845.9465
400023, 110.0000, 845.9465
400024, 115.0000, 845.9465
400025, 120.0000, 845.9465
400026, 125.0000, 845.9465
400027, 130.0000, 845.9465
400028, 135.0000, 845.9465
400029, 140.0000, 845.9465
400030, 145.0000, 845.9465
400031, 150.0000, 845.9465
400032, 155.0000, 845.9465
400033, 160.0000, 845.9465
400034, 165.0000, 845.9465
400035, 170.0000, 845.9465
400036, 175.0000, 845.9465
400037, 180.0000, 845.9465
400038, 185.0000, 845.9465
400039, 190.0000, 845.9465
400040, 195.0000, 845.9465
400041, 200.0000, 845.9465
400042, 205.0000, 845.9465
400043, 210.0000, 845.9465
400044, 215.0000, 845.9465
400045, 220.0000, 845.9465
400046, 225.0000, 845.9465
400047, 230.0000, 845.9465
400048, 235.0000, 845.9465
400049, 240.0000, 845.9465
400050, 245.0000, 845.9465
400051, 250.0000, 845.9465
400052, 255.0000, 845.9465
400053, 260.0000, 845.9465
400054, 265.0000, 845.9465
400055, 270.0000, 845.9465
400056, 275.0000, 845.9465
400057, 280.0000, 845.9465
400058, 285.0000, 845.9465
400059, 290.0000, 845.9465
400060, 295.0000, 845.9465
400061, 300.0000, 845.9465
400062, 306.0000, 845.9465
400063, 313.2000, 845.9465
400064, 321.8400, 845.9465
400065, 332.2080, 845.9465
400066, 344.6496, 845.9465
400067, 359.5795, 845.9465
400068, 377.4954, 845.9465
400069, 398.9945, 845.9465
400070, 424.7934, 845.9465
400071, 455.7521, 845.9465
400072, 492.9025, 845.9465
400073, 537.4830, 845.9465
400074, 590.9796, 845.9465
400075, 655.1755, 845.9465
400076, 732.2106, 845.9465
400077, 824.6528, 845.9465
400078, 935.5833, 845.9465
400079, 1068.7000, 845.9465
400080, 1228.4400, 845.9465
400081, 1420.1280, 845.9465
400082, 1650.1536, 845.9465
400083, 1926.1843, 845.9465
400084, 2000.0000, 845.9465
500001, 0.0000, 983.8050
500002, 5.0000, 983.8050
500003, 10.0000, 983.8050
500004, 15.0000, 983.8050
500005, 20.0000, 983.8050
500006, 25.0000, 983.8050
500007, 30.0000, 983.8050
500008, 35.0000, 983.8050
500009, 40.0000, 983.8050
500010, 45.0000, 983.8050
500011, 50.0000, 983.8050
500012, 55.0000, 983.8050
500013, 60.0000, 983.8050
500014, 65.0000, 983.8050
500015, 70.0000, 983.8050
500016, 75.0000, 983.8050
500017, 80.0000, 983.8050
500018, 85.0000, 983.8050
500019, 90.0000, 983.8050
500020, 95.0000, 983.8050
500021, 100.0000, 983.8050
500022, 105.0000, 983.8050
500023, 110.0000, 983.8050
500024, 115.0000, 983.8050
500025, 120.0000, 983.8050
500026, 125.0000, 983.8050
500027, 130.0000, 983.8050
500028, 135.0000, 983.8050
500029, 140.0000, 983.8050
500030, 145.0000, 983.8050
500031, 150.0000, 983.8050
500032, 155.0000, 983.8050
500033, 160.0000, 983.8050
500034, 165.0000, 983.8050
500035, 170.0000, 983.8050
500036, 175.0000, 983.8050
500037, 180.0000, 983.8050
500038, 185.0000, 983.8050
500039, 190.0000, 983.8050
500040, 195.0000, 983.8050
500041, 200.0000, 983.8050
500042, 205.0000, 983.8050
500043, 210.0000, 983.8050
500044, 215.0000, 983.8050
500045, 220.0000, 983.8050
500046, 225.0000, 983.8050
500047, 230.0000, 983.8050
500048, 235.0000, 983.8050
500049, 240.0000, 983.8050
500050, 245.0000, 983.8050
500051, 250.0000, 983.8050
500052, 255.0000, 983.8050
500053, 260.0000, 983.8050
500054, 265.0000, 983.8050
500055, 270.0000, 983.8050
500056, 275.0000, 983.8050
500057, 280.0000, 983.8050
500058, 285.0000, 983.8050
500059, 290.0000, 983.8050
500060, 295.0000, 983.8050
500061, 300.0000, 983.8050
500062, 306.0000, 983.8050
500063, 313.2000, 983.8050
500064, 321.8400, 983.8050
500065, 332.2080, 983.8050
500066, 344.6496, 983.8050
500067, 359.5795, 983.8050
500068, 377.4954, 983.8050
500069, 398.9945, 983.8050
500070, 424.7934, 983.8050
500071, 455.7521, 983.8050
500072, 492.9025, 983.8050
500073, 537.4830, 983.8050
500074, 590.9796, 983.8050
500075, 655.1755, 983.8050
500076, 732.2106, 983.8050
500077, 824.6528, 983.8050
500078, 935.5833, 983.8050
500079, 1068.7000, 983.8050
500080, 1228.4400, 983.8050
500081, 1420.1280, 983.8050
500082, 1650.1536, 983.8050
500083, 1926.1843, 983.8050
500084, 2000.0000, 983.8050
600001, 0.0000, 1089.8500
600002, 5.0000, 1089.8500
600003, 10.0000, 1089.8500
600004, 15.0000, 1089.8500
600005, 20.0000, 1089.8500
600006, 25.0000, 1089.8500
600007, 30.0000, 1089.8500
600008, 35.0000, 1089.8500
600009, 40.0000, 1089.8500
600010, 45.0000, 1089.8500
600011, 50.0000, 1089.8500
600012, 55.0000, 1089.8500
600013, 60.0000, 1089.8500
600014, 65.0000, 1089.8500
600015, 70.0000, 1089.8500
600016, 75.0000, 1089.8500
600017, 80.0000, 1089.8500
600018, 85.0000, 1089.8500
600019, 90.0000, 1089.8500
600020, 95.0000, 1089.8500
600021, 100.0000, 1089.8500
600022, 105.0000, 1089.8500
600023, 110.0000, 1089.8500
600024, 115.0000, 1089.8500
600025, 120.0000, 1089.8500
600026, 125.0000, 1089.8500
600027, 130.0000, 1089.8500
600028, 135.0000, 1089.8500
600029, 140.0000, 1089.8500
600030, 145.0000, 1089.8500
600031, 150.0000, 1089.8500
600032, 155.0000, 1089.8500
600033, 160.0000, 1089.8500
600034, 165.0000, 1089.8500
600035, 170.0000, 1089.8500
600036, 175.0000, 1089.8500
600037, 180.0000, 1089.8500
600038, 185.0000, 1089.8500
600039, 190.0000, 1089.8500
600040, 195.0000, 1089.8500
600041, 200.0000, 1089.8500
600042, 205.0000, 1089.8500
600043, 210.0000, 1089.8500
600044, 215.0000, 1089.8500
600045, 220.0000, 1089.8500
600046, 225.0000, 1089.8500
600047, 230.0000, 1089.8500
600048, 235.0000, 1089.8500
600049, 240.0000, 1089.8500
600050, 245.0000, 1089.8500
600051, 250.0000, 1089.8500
600052, 255.0000, 1089.8500
600053, 260.0000, 1089.8500
600054, 265.0000, 1089.8500
600055, 270.0000, 1089.8500
600056, 275.0000, 1089.8500
600057, 280.0000, 1089.8500
600058, 285.0000, 1089.8500
600059, 290.0000, 1089.8500
600060, 295.0000, 1089.8500
600061, 300.0000, 1089.8500
600062, 306.0000, 1089.8500
600063, 313.2000, 1089.8500
600064, 321.8400, 1089.8500
600065, 332.2080, 1089.8500
600066, 344.6496, 1089.8500
600067, 359.5795, 1089.8500
600068, 377.4954, 1089.8500
600069, 398.9945, 1089.8500
600070, 424.7934, 1089.8500
600071, 455.7521, 1089.8500
600072, 492.9025, 1089.8500
600073, 537.4830, 1089.8500
600074, 590.9796, 1089.8500
600075, 655.1755, 1089.8500
600076, 732.2106, 1089.8500
600077, 824.6528, 1089.8500
600078, 935.5833, 1089.8500
600079, 1068.7000, 1089.8500
600080, 1228.4400, 1089.8500
600081, 1420.1280, 1089.8500
600082, 1650.1536, 1089.8500
600083, 1926.1843, 1089.8500
600084, 2000.0000, 1089.8500
700001, 0.0000, 1171.4231
700002, 5.0000, 1171.4231
700003, 10.0000, 1171.4231
700004, 15.0000, 1171.4231
700005, 20.0000, 1171.4231
700006, 25.0000, 1171.4231
700007, 30.0000, 1171.4231
700008, 35.0000, 1171.4231
700009, 40.0000, 1171.4231
700010, 45.0000, 1171.4231
700011, 50.0000, 1171.4231
700012, 55.0000, 1171.4231
700013, 60.0000, 1171.4231
700014, 65.0000, 1171.4231
700015, 70.0000, 1171.4231
700016, 75.0000, 1171.4231
700017, 80.0000, 1171.4231
700018, 85.0000, 1171.4231
700019, 90.0000, 1171.4231
700020, 95.0000, 1171.4231
700021, 100.0000, 1171.4231
700022, 105.0000, 1171.4231
700023, 110.0000, 1171.4231
700024, 115.0000, 1171.4231
700025, 120.0000, 1171.4231
700026, 125.0000, 1171.4231
700027, 130.0000, 1171.4231
700028, 135.0000, 1171.4231
700029, 140.0000, 1171.4231
700030, 145.0000, 1171.4231
700031, 150.0000, 1171.4231
700032, 155.0000, 1171.4231
700033, 160.0000, 1171.4231
700034, 165.0000, 1171.4231
700035, 170.0000, 1171.4231
700036, 175.0000, 1171.4231
700037, 180.0000, 1171.4231
700038, 185.0000, 1171.4231
700039, 190.0000, 1171.4231
700040, 195.0000, 1171.4231
700041, 200.0000, 1171.4231
700042, 205.0000, 1171.4231
700043, 210.0000, 1171.4231
700044, 215.0000, 1171.4231
700045, 220.0000, 1171.4231
700046, 225.0000, 1171.4231
700047, 230.0000, 1171.4231
700048, 235.0000, 1171.4231
700049, 240.0000, 1171.4231
700050, 245.0000, 1171.4231
700051, 250.0000, 1171.4231
700052, 255.0000, 1171.4231
700053, 260.0000, 1171.4231
700054, 265.0000, 1171.4231
700055, 270.0000, 1171.4231
700056, 275.0000, 1171.4231
700057, 280.0000, 1171.4231
700058, 285.0000, 1171.4231
700059, 290.0000, 1171.4231
700060, 295.0000, 1171.4231
700061, 300.0000, 1171.4231
700062, 306.0000, 1171.4231
700063, 313.2000, 1171.4231
700064, 321.8400, 1171.4231
700065, 332.2080, 1171.4231
700066, 344.6496, 1171.4231
700067, 359.5795, 1171.4231
700068, 377.4954, 1171.4231
700069, 398.9945, 1171.4231
700070, 424.7934, 1171.4231
700071, 455.7521, 1171.4231
700072, 492.9025, 1171.4231
700073, 537.4830, 1171.4231
700074, 590.9796, 1171.4231
700075, 655.1755, 1171.4231
700076, 732.2106, 1171.4231
700077, 824.6528, 1171.4231
700078, 935.5833, 1171.4231
700079, 1068.7000, 1171.4231
700080, 1228.4400, 1171.4231
700081, 1420.1280, 1171.4231
700082, 1650.1536, 1171.4231
700083, 1926.1843, 1171.4231
700084, 2000.0000, 1171.4231
800001, 0.0000, 1234.1716
800002, 5.0000, 1234.1716
800003, 10.0000, 1234.1716
800004, 15.0000, 1234.1716
800005, 20.0000, 1234.1716
800006, 25.0000, 1234.1716
800007, 30.0000, 1234.1716
800008, 35.0000, 1234.1716
800009, 40.0000, 1234.1716
800010, 45.0000, 1234.1716
800011, 50.0000, 1234.1716
800012, 55.0000, 1234.1716
800013, 60.0000, 1234.1716
800014, 65.0000, 1234.1716
800015, 70.0000, 1234.1716
800016, 75.0000, 1234.1716
800017, 80.0000, 1234.1716
800018, 85.0000, 1234.1716
800019, 90.0000, 1234.1716
800020, 95.0000, 1234.1716
800021, 100.0000, 1234.1716
800022, 105.0000, 1234.1716
800023, 110.0000, 1234.1716
800024, 115.0000, 1234.1716
800025, 120.0000, 1234.1716
800026, 125.0000, 1234.1716
800027, 130.0000, 1234.1716
800028, 135.0000, 1234.1716
800029, 140.0000, 1234.1716
800030, 145.0000, 1234.1716
800031, 150.0000, 1234.1716
800032, 155.0000, 1234.1716
800033, 160.0000, 1234.1716
800034, 165.0000, 1234.1716
800035, 170.0000, 1234.1716
800036, 175.0000, 1234.1716
800037, 180.0000, 1234.1716
800038, 185.0000, 1234.1716
800039, 190.0000, 1234.1716
800040, 195.0000, 1234.1716
800041, 200.0000, 1234.1716
800042, 205.0000, 1234.1716
800043, 210.0000, 1234.1716
800044, 215.0000, 1234.1716
800045, 220.0000, 1234.1716
800046, 225.0000, 1234.1716
800047, 230.0000, 1234.1716
800048, 235.0000, 1234.1716
800049, 240.0000, 1234.1716
800050, 245.0000, 1234.1716
800051, 250.0000, 1234.1716
800052, 255.0000, 1234.1716
800053, 260.0000, 1234.1716
800054, 265.0000, 1234.1716
800055, 270.0000, 1234.1716
800056, 275.0000, 1234.1716
800057, 280.0000, 1234.1716
800058, 285.0000, 1234.1716
800059, 290.0000, 1234.1716
800060, 295.0000, 1234.1716
800061, 300.0000, 1234.1716
800062, 306.0000, 1234.1716
800063, 313.2000, 1234.1716
800064, 321.8400, 1234.1716
800065, 332.2080, 1234.1716
800066, 344.6496, 1234.1716
800067, 359.5795, 1234.1716
800068, 377.4954, 1234.1716
800069, 398.9945, 1234.1716
800070, 424.7934, 1234.1716
800071, 455.7521, 1234.1716
800072, 492.9025, 1234.1716
800073, 537.4830, 1234.1716
800074, 590.9796, 1234.1716
800075, 655.1755, 1234.1716
800076, 732.2106, 1234.1716
800077, 824.6528, 1234.1716
800078, 935.5833, 1234.1716
800079, 1068.7000, 1234.1716
800080, 1228.4400, 1234.1716
800081, 1420.1280, 1234.1716
800082, 1650.1536, 1234.1716
800083, 1926.1843, 1234.1716
800084, 2000.0000, 1234.1716
900001, 0.0000, 1282.4397
900002, 5.0000, 1282.4397
900003, 10.0000, 1282.4397
900004, 15.0000, 1282.4397
900005, 20.0000, 1282.4397
900006, 25.0000, 1282.4397
900007, 30.0000, 1282.4397
900008, 35.0000, 1282.4397
900009, 40.0000, 1282.4397
900010, 45.0000, 1282.4397
900011, 50.0000, 1282.4397
900012, 55.0000, 1282.4397
900013, 60.0000, 1282.4397
900014, 65.0000, 1282.4397
900015, 70.0000, 1282.4397
900016, 75.0000, 1282.4397
900017, 80.0000, 1282.4397
900018, 85.0000, 1282.4397
900019, 90.0000, 1282.4397
900020, 95.0000, 1282.4397
900021, 100.0000, 1282.4397
900022, 105.0000, 1282.4397
900023, 110.0000, 1282.4397
900024, 115.0000, 1282.4397
900025, 120.0000, 1282.4397
900026, 125.0000, 1282.4397
900027, 130.0000, 1282.4397
900028, 135.0000, 1282.4397
900029, 140.0000, 1282.4397
900030, 145.0000, 1282.4397
900031, 150.0000, 1282.4397
900032, 155.0000, 1282.4397
900033, 160.0000, 1282.4397
900034, 165.0000, 1282.4397
900035, 170.0000, 1282.4397
900036, 175.0000, 1282.4397
900037, 180.0000, 1282.4397
900038, 185.0000, 1282.4397
900039, 190.0000, 1282.4397
900040, 195.0000, 1282.4397
900041, 200.0000, 1282.4397
900042, 205.0000, 1282.4397
900043, 210.0000, 1282.4397
900044, 215.0000, 1282.4397
900045, 220.0000, 1282.4397
900046, 225.0000, 1282.4397
900047, 230.0000, 1282.4397
900048, 235.0000, 1282.4397
900049, 240.0000, 1282.4397
900050, 245.0000, 1282.4397
900051, 250.0000, 1282.4397
900052, 255.0000, 1282.4397
900053, 260.0000, 1282.4397
900054, 265.0000, 1282.4397
900055, 270.0000, 1282.4397
900056, 275.0000, 1282.4397
900057, 280.0000, 1282.4397
900058, 285.0000, 1282.4397
900059, 290.0000, 1282.4397
900060, 295.0000, 1282.4397
900061, 300.0000, 1282.4397
900062, 306.0000, 1282.4397
900063, 313.2000, 1282.4397
900064, 321.8400, 1282.4397
900065, 332.2080, 1282.4397
900066, 344.6496, 1282.4397
900067, 359.5795, 1282.4397
900068, 377.4954, 1282.4397
900069, 398.9945, 1282.4397
900070, 424.7934, 1282.4397
900071, 455.7521, 1282.4397
900072, 492.9025, 1282.4397
900073, 537.4830, 1282.4397
900074, 590.9796, 1282.4397
900075, 655.1755, 1282.4397
900076, 732.2106, 1282.4397
900077, 824.6528, 1282.4397
900078, 935.5833, 1282.4397
900079, 1068.7000, 1282.4397
900080, 1228.4400, 1282.4397
900081, 1420.1280, 1282.4397
900082, 1650.1536, 1282.4397
900083, 1926.1843, 1282.4397
900084, 2000.0000, 1282.4397
1000001, 0.0000, 1319.5690
1000002, 5.0000, 1319.5690
1000003, 10.0000, 1319.5690
1000004, 15.0000, 1319.5690
1000005, 20.0000, 1319.5690
1000006, 25.0000, 1319.5690
1000007, 30.0000, 1319.5690
1000008, 35.0000, 1319.5690
1000009, 40.0000, 1319.5690
1000010, 45.0000, 1319.5690
1000011, 50.0000, 1319.5690
1000012, 55.0000, 1319.5690
1000013, 60.0000, 1319.5690
1000014, 65.0000, 1319.5690
1000015, 70.0000, 1319.5690
1000016, 75.0000, 1319.5690
1000017, 80.0000, 1319.5690
1000018, 85.0000, 1319.5690
1000019, 90.0000, 1319.5690
1000020, 95.0000, 1319.5690
1000021, 100.0000, 1319.5690
1000022, 105.0000, 1319.5690
1000023, 110.0000, 1319.5690
1000024, 115.0000, 1319.5690
1000025, 120.0000, 1319.5690
1000026, 125.0000, 1319.5690
1000027, 130.0000, 1319.5690
1000028, 135.0000, 1319.5690
1000029, 140.0000, 1319.5690
1000030, 145.0000, 1319.5690
1000031, 150.0000, 1319.5690
1000032, 155.0000, 1319.5690
1000033, 160.0000, 1319.5690
1000034, 165.0000, 1319.5690
1000035, 170.0000, 1319.5690
1000036, 175.0000, 1319.5690
1000037, 180.0000, 1319.5690
1000038, 185.0000, 1319.5690
1000039, 190.0000, 1319.5690
1000040, 195.0000, 1319.5690
1000041, 200.0000, 1319.5690
1000042, 205.0000, 1319.5690
1000043, 210.0000, 1319.5690
1000044, 215.0000, 1319.5690
1000045, 220.0000, 1319.5690
1000046, 225.0000, 1319.5690
1000047, 230.0000, 1319.5690
1000048, 235.0000, 1319.5690
1000049, 240.0000, 1319.5690
1000050, 245.0000, 1319.5690
1000051, 250.0000, 1319.5690
1000052, 255.0000, 1319.5690
1000053, 260.0000, 1319.5690
1000054, 265.0000, 1319.5690
1000055, 270.0000, 1319.5690
1000056, 275.0000, 1319.5690
1000057, 280.0000, 1319.5690
1000058, 285.0000, 1319.5690
1000059, 290.0000, 1319.5690
1000060, 295.0000, 1319.5690
1000061, 300.0000, 1319.5690
1000062, 306.0000, 1319.5690
1000063, 313.2000, 1319.5690
1000064, 321.8400, 1319.5690
1000065, 332.2080, 1319.5690
1000066, 344.6496, 1319.5690
1000067, 359.5795, 1319.5690
1000068, 377.4954, 1319.5690
1000069, 398.9945, 1319.5690
1000070, 424.7934, 1319.5690
1000071, 455.7521, 1319.5690
1000072, 492.9025, 1319.5690
1000073, 537.4830, 1319.5690
1000074, 590.9796, 1319.5690
1000075, 655.1755, 1319.5690
1000076, 732.2106, 1319.5690
1000077, 824.6528, 1319.5690
1000078, 935.5833, 1319.5690
1000079, 1068.7000, 1319.5690
1000080, 1228.4400, 1319.5690
1000081, 1420.1280, 1319.5690
1000082, 1650.1536, 1319.5690
1000083, 1926.1843, 1319.5690
1000084, 2000.0000, 1319.5690
1100001, 0.0000, 1348.1300
1100002, 5.0000, 1348.1300
1100003, 10.0000, 1348.1300
1100004, 15.0000, 1348.1300
1100005, 20.0000, 1348.1300
1100006, 25.0000, 1348.1300
1100007, 30.0000, 1348.1300
1100008, 35.0000, 1348.1300
1100009, 40.0000, 1348.1300
1100010, 45.0000, 1348.1300
1100011, 50.0000, 1348.1300
1100012, 55.0000, 1348.1300
1100013, 60.0000, 1348.1300
1100014, 65.0000, 1348.1300
1100015, 70.0000, 1348.1300
1100016, 75.0000, 1348.1300
1100017, 80.0000, 1348.1300
1100018, 85.0000, 1348.1300
1100019, 90.0000, 1348.1300
1100020, 95.0000, 1348.1300
1100021, 100.0000, 1348.1300
1100022, 105.0000, 1348.1300
1100023, 110.0000, 1348.1300
1100024, 115.0000, 1348.1300
1100025, 120.0000, 1348.1300
1100026, 125.0000, 1348.1300
1100027, 130.0000, 1348.1300
1100028, 135.0000, 1348.1300
1100029, 140.0000, 1348.1300
1100030, 145.0000, 1348.1300
1100031, 150.0000, 1348.1300
1100032, 155.0000, 1348.1300
1100033, 160.0000, 1348.1300
1100034, 165.0000, 1348.1300
1100035, 170.0000, 1348.1300
1100036, 175.0000, 1348.1300
1100037, 180.0000, 1348.1300
1100038, 185.0000, 1348.1300
1100039, 190.0000, 1348.1300
1100040, 195.0000, 1348.1300
1100041, 200.0000, 1348.1300
1100042, 205.0000, 1348.1300
1100043, 210.0000, 1348.1300
1100044, 215.0000, 1348.1300
1100045, 220.0000, 1348.1300
1100046, 225.0000, 1348.1300
1100047, 230.0000, 1348.1300
1100048, 235.0000, 1348.1300
1100049, 240.0000, 1348.1300
1100050, 245.0000, 1348.1300
1100051, 250.0000, 1348.1300
1100052, 255.0000, 1348.1300
1100053, 260.0000, 1348.1300
1100054, 265.0000, 1348.1300
1100055, 270.0000, 1348.1300
1100056, 275.0000, 1348.1300
1100057, 280.0000, 1348.1300
1100058, 285.0000, 1348.1300
1100059, 290.0000, 1348.1300
1100060, 295.0000, 1348.1300
1100061, 300.0000, 1348.1300
1100062, 306.0000, 1348.1300
1100063, 313.2000, 1348.1300
1100064, 321.8400, 1348.1300
1100065, 332.2080, 1348.1300
1100066, 344.6496, 1348.1300
1100067, 359.5795, 1348.1300
1100068, 377.4954, 1348.1300
1100069, 398.9945, 1348.1300
1100070, 424.7934, 1348.1300
1100071, 455.7521, 1348.1300
1100072, 492.9025, 1348.1300
1100073, 537.4830, 1348.1300
1100074, 590.9796, 1348.1300
1100075, 655.1755, 1348.1300
1100076, 732.2106, 1348.1300
1100077, 824.6528, 1348.1300
1100078, 935.5833, 1348.1300
1100079, 1068.7000, 1348.1300
1100080, 1228.4400, 1348.1300
1100081, 1420.1280, 1348.1300
1100082, 1650.1536, 1348.1300
1100083, 1926.1843, 1348.1300
1100084, 2000.0000, 1348.1300
1200001, 0.0000, 1370.1000
1200002, 5.0000, 1370.1000
1200003, 10.0000, 1370.1000
1200004, 15.0000, 1370.1000
1200005, 20.0000, 1370.1000
1200006, 25.0000, 1370.1000
1200007, 30.0000, 1370.1000
1200008, 35.0000, 1370.1000
1200009, 40.0000, 1370.1000
1200010, 45.0000, 1370.1000
1200011, 50.0000, 1370.1000
1200012, 55.0000, 1370.1000
1200013, 60.0000, 1370.1000
1200014, 65.0000, 1370.1000
1200015, 70.0000, 1370.1000
1200016, 75.0000, 1370.1000
1200017, 80.0000, 1370.1000
1200018, 85.0000, 1370.1000
1200019, 90.0000, 1370.1000
1200020, 95.0000, 1370.1000
1200021, 100.0000, 1370.1000
1200022, 105.0000, 1370.1000
1200023, 110.0000, 1370.1000
1200024, 115.0000, 1370.1000
1200025, 120.0000, 1370.1000
1200026, 125.0000, 1370.1000
1200027, 130.0000, 1370.1000
1200028, 135.0000, 1370.1000
1200029, 140.0000, 1370.1000
1200030, 145.0000, 1370.1000
1200031, 150.0000, 1370.1000
1200032, 155.0000, 1370.1000
1200033, 160.0000, 1370.1000
1200034, 165.0000, 1370.1000
1200035, 170.0000, 1370.1000
1200036, 175.0000, 1370.1000
1200037, 180.0000, 1370.1000
1200038, 185.0000, 1370.1000
1200039, 190.0000, 1370.1000
1200040, 195.0000, 1370.1000
1200041, 200.0000, 1370.1000
1200042, 205.0000, 1370.1000
1200043, 210.0000, 1370.1000
1200044, 215.0000, 1370.1000
1200045, 220.0000, 1370.1000
1200046, 225.0000, 1370.1000
1200047, 230.0000, 1370.1000
1200048, 235.0000, 1370.1000
1200049, 240.0000, 1370.1000
1200050, 245.0000, 1370.1000
1200051, 250.0000, 1370.1000
1200052, 255.0000, 1370.1000
1200053, 260.0000, 1370.1000
1200054, 265.0000, 1370.1000
1200055, 270.0000, 1370.1000
1200056, 275.0000, 1370.1000
1200057, 280.0000, 1370.1000
1200058, 285.0000, 1370.1000
1200059, 290.0000, 1370.1000
1200060, 295.0000, 1370.1000
1200061, 300.0000, 1370.1000
1200062, 306.0000, 1370.1000
1200063, 313.2000, 1370.1000
1200064, 321.8400, 1370.1000
1200065, 332.2080, 1370.1000
1200066, 344.6496, 1370.1000
1200067, 359.5795, 1370.1000
1200068, 377.4954, 1370.1000
1200069, 398.9945, 1370.1000
1200070, 424.7934, 1370.1000
1200071, 455.7521, 1370.1000
1200072, 492.9025, 1370.1000
1200073, 537.4830, 1370.1000
1200074, 590.9796, 1370.1000
1200075, 655.1755, 1370.1000
1200076, 732.2106, 1370.1000
1200077, 824.6528, 1370.1000
1200078, 935.5833, 1370.1000
1200079, 1068.7000, 1370.1000
1200080, 1228.4400, 1370.1000
1200081, 1420.1280, 1370.1000
1200082, 1650.1536, 1370.1000
1200083, 1926.1843, 1370.1000
1200084, 2000.0000, 1370.1000
1300001, 0.0000, 1387.0000
1300002, 5.0000, 1387.0000
1300003, 10.0000, 1387.0000
1300004, 15.0000, 1387.0000
1300005, 20.0000, 1387.0000
1300006, 25.0000, 1387.0000
1300007, 30.0000, 1387.0000
1300008, 35.0000, 1387.0000
1300009, 40.0000, 1387.0000
1300010, 45.0000, 1387.0000
1300011, 50.0000, 1387.0000
1300012, 55.0000, 1387.0000
1300013, 60.0000, 1387.0000
1300014, 65.0000, 1387.0000
1300015, 70.0000, 1387.0000
1300016, 75.0000, 1387.0000
1300017, 80.0000, 1387.0000
1300018, 85.0000, 1387.0000
1300019, 90.0000, 1387.0000
1300020, 95.0000, 1387.0000
1300021, 100.0000, 1387.0000
1300022, 105.0000, 1387.0000
1300023, 110.0000, 1387.0000
1300024, 115.0000, 1387.0000
1300025, 120.0000, 1387.0000
1300026, 125.0000, 1387.0000
1300027, 130.0000, 1387.0000
1300028, 135.0000, 1387.0000
1300029, 140.0000, 1387.0000
1300030, 145.0000, 1387.0000
1300031, 150.0000, 1387.0000
1300032, 155.0000, 1387.0000
1300033, 160.0000, 1387.0000
1300034, 165.0000, 1387.0000
1300035, 170.0000, 1387.0000
1300036, 175.0000, 1387.0000
1300037, 180.0000, 1387.0000
1300038, 185.0000, 1387.0000
1300039, 190.0000, 1387.0000
1300040, 195.0000, 1387.0000
1300041, 200.0000, 1387.0000
1300042, 205.0000, 1387.0000
1300043, 210.0000, 1387.0000
1300044, 215.0000, 1387.0000
1300045, 220.0000, 1387.0000
1300046, 225.0000, 1387.0000
1300047, 230.0000, 1387.0000
1300048, 235.0000, 1387.0000
1300049, 240.0000, 1387.0000
1300050, 245.0000, 1387.0000
1300051, 250.0000, 1387.0000
1300052, 255.0000, 1387.0000
1300053, 260.0000, 1387.0000
1300054, 265.0000, 1387.0000
1300055, 270.0000, 1387.0000
1300056, 275.0000, 1387.0000
1300057, 280.0000, 1387.0000
1300058, 285.0000, 1387.0000
1300059, 290.0000, 1387.0000
1300060, 295.0000, 1387.0000
1300061, 300.0000, 1387.0000
1300062, 306.0000, 1387.0000
1300063, 313.2000, 1387.0000
1300064, 321.8400, 1387.0000
1300065, 332.2080, 1387.0000
1300066, 344.6496, 1387.0000
1300067, 359.5795, 1387.0000
1300068, 377.4954, 1387.0000
1300069, 398.9945, 1387.0000
1300070, 424.7934, 1387.0000
1300071, 455.7521, 1387.0000
1300072, 492.9025, 1387.0000
1300073, 537.4830, 1387.0000
1300074, 590.9796, 1387.0000
1300075, 655.1755, 1387.0000
1300076, 732.2106, 1387.0000
1300077, 824.6528, 1387.0000
1300078, 935.5833, 1387.0000
1300079, 1068.7000, 1387.0000
1300080, 1228.4400, 1387.0000
1300081, 1420.1280, 1387.0000
1300082, 1650.1536, 1387.0000
1300083, 1926.1843, 1387.0000
1300084, 2000.0000, 1387.0000
1400001, 0.0000, 1400.0000
1400002, 5.0000, 1400.0000
1400003, 10.0000, 1400.0000
1400004, 15.0000, 1400.0000
1400005, 20.0000, 1400.0000
1400006, 25.0000, 1400.0000
1400007, 30.0000, 1400.0000
1400008, 35.0000, 1400.0000
1400009, 40.0000, 1400.0000
1400010, 45.0000, 1400.0000
1400011, 50.0000, 1400.0000
1400012, 55.0000, 1400.0000
1400013, 60.0000, 1400.0000
1400014, 65.0000, 1400.0000
1400015, 70.0000, 1400.0000
1400016, 75.0000, 1400.0000
1400017, 80.0000, 1400.0000
1400018, 85.0000, 1400.0000
1400019, 90.0000, 1400.0000
1400020, 95.0000, 1400.0000
1400021, 100.0000, 1400.0000
1400022, 105.0000, 1400.0000
1400023, 110.0000, 1400.0000
1400024, 115.0000, 1400.0000
1400025, 120.0000, 1400.0000
1400026, 125.0000, 1400.0000
1400027, 130.0000, 1400.0000
1400028, 135.0000, 1400.0000
1400029, 140.0000, 1400.0000
1400030, 145.0000, 1400.0000
1400031, 150.0000, 1400.0000
1400032, 155.0000, 1400.0000
1400033, 160.0000, 1400.0000
1400034, 165.0000, 1400.0000
1400035, 170.0000, 1400.0000
1400036, 175.0000, 1400.0000
1400037, 180.0000, 1400.0000
1400038, 185.0000, 1400.0000
1400039, 190.0000, 1400.0000
1400040, 195.0000, 1400.0000
1400041, 200.0000, 1400.0000
1400042, 205.0000, 1400.0000
1400043, 210.0000, 1400.0000
1400044, 215.0000, 1400.0000
1400045, 220.0000, 1400.0000
1400046, 225.0000, 1400.0000
1400047, 230.0000, 1400.0000
1400048, 235.0000, 1400.0000
1400049, 240.0000, 1400.0000
1400050, 245.0000, 1400.0000
1400051, 250.0000, 1400.0000
1400052, 255.0000, 1400.0000
1400053, 260.0000, 1400.0000
1400054, 265.0000, 1400.0000
1400055, 270.0000, 1400.0000
1400056, 275.0000, 1400.0000
1400057, 280.0000, 1400.0000
1400058, 285.0000, 1400.0000
1400059, 290.0000, 1400.0000
1400060, 295.0000, 1400.0000
1400061, 300.0000, 1400.0000
1400062, 306.0000, 1400.0000
1400063, 313.2000, 1400.0000
1400064, 321.8400, 1400.0000
1400065, 332.2080, 1400.0000
1400066, 344.6496, 1400.0000
1400067, 359.5795, 1400.0000
1400068, 377.4954, 1400.0000
1400069, 398.9945, 1400.0000
1400070, 424.7934, 1400.0000
1400071, 455.7521, 1400.0000
1400072, 492.9025, 1400.0000
1400073, 537.4830, 1400.0000
1400074, 590.9796, 1400.0000
1400075, 655.1755, 1400.0000
1400076, 732.2106, 1400.0000
1400077, 824.6528, 1400.0000
1400078, 935.5833, 1400.0000
1400079, 1068.7000, 1400.0000
1400080, 1228.4400, 1400.0000
1400081, 1420.1280, 1400.0000
1400082, 1650.1536, 1400.0000
1400083, 1926.1843, 1400.0000
1400084, 2000.0000, 1400.0000
1500001, 0.0000, 1410.0000
1500002, 5.0000, 1410.0000
1500003, 10.0000, 1410.0000
1500004, 15.0000, 1410.0000
1500005, 20.0000, 1410.0000
1500006, 25.0000, 1410.0000
1500007, 30.0000, 1410.0000
1500008, 35.0000, 1410.0000
1500009, 40.0000, 1410.0000
1500010, 45.0000, 1410.0000
1500011, 50.0000, 1410.0000
1500012, 55.0000, 1410.0000
1500013, 60.0000, 1410.0000
1500014, 65.0000, 1410.0000
1500015, 70.0000, 1410.0000
1500016, 75.0000, 1410.0000
1500017, 80.0000, 1410.0000
1500018, 85.0000, 1410.0000
1500019, 90.0000, 1410.0000
1500020, 95.0000, 1410.0000
1500021, 100.0000, 1410.0000
1500022, 105.0000, 1410.0000
1500023, 110.0000, 1410.0000
1500024, 115.0000, 1410.0000
1500025, 120.0000, 1410.0000
1500026, 125.0000, 1410.0000
1500027, 130.0000, 1410.0000
1500028, 135.0000, 1410.0000
1500029, 140.0000, 1410.0000
1500030, 145.0000, 1410.0000
1500031, 150.0000, 1410.0000
1500032, 155.0000, 1410.0000
1500033, 160.0000, 1410.0000
1500034, 165.0000, 1410.0000
1500035, 170.0000, 1410.0000
1500036, 175.0000, 1410.0000
1500037, 180.0000, 1410.0000
1500038, 185.0000, 1410.0000
1500039, 190.0000, 1410.0000
1500040, 195.0000, 1410.0000
1500041, 200.0000, 1410.0000
1500042, 205.0000, 1410.0000
1500043, 210.0000, 1410.0000
1500044, 215.0000, 1410.0000
1500045, 220.0000, 1410.0000
1500046, 225.0000, 1410.0000
1500047, 230.0000, 1410.0000
1500048, 235.0000, 1410.0000
1500049, 240.0000, 1410.0000
1500050, 245.0000, 1410.0000
1500051, 250.0000, 1410.0000
1500052, 255.0000, 1410.0000
1500053, 260.0000, 1410.0000
1500054, 265.0000, 1410.0000
1500055, 270.0000, 1410.0000
1500056, 275.0000, 1410.0000
1500057, 280.0000, 1410.0000
1500058, 285.0000, 1410.0000
1500059, 290.0000, 1410.0000
1500060, 295.0000, 1410.0000
1500061, 300.0000, 1410.0000
1500062, 306.0000, 1410.0000
1500063, 313.2000, 1410.0000
1500064, 321.8400, 1410.0000
1500065, 332.2080, 1410.0000
1500066, 344.6496, 1410.0000
1500067, 359.5795, 1410.0000
1500068, 377.4954, 1410.0000
1500069, 398.9945, 1410.0000
1500070, 424.7934, 1410.0000
1500071, 455.7521, 1410.0000
1500072, 492.9025, 1410.0000
1500073, 537.4830, 1410.0000
1500074, 590.9796, 1410.0000
1500075, 655.1755, 1410.0000
1500076, 732.2106, 1410.0000
1500077, 824.6528, 1410.0000
1500078, 935.5833, 1410.0000
1500079, 1068.7000, 1410.0000
1500080, 1228.4400, 1410.0000
1500081, 1420.1280, 1410.0000
1500082, 1650.1536, 1410.0000
1500083, 1926.1843, 1410.0000
1500084, 2000.0000, 1410.0000
1600001, 0.0000, 1420.0000
1600002, 5.0000, 1420.0000
1600003, 10.0000, 1420.0000
1600004, 15.0000, 1420.0000
1600005, 20.0000, 1420.0000
1600006, 25.0000, 1420.0000
1600007, 30.0000, 1420.0000
1600008, 35.0000, 1420.0000
1600009, 40.0000, 1420.0000
1600010, 45.0000, 1420.0000
1600011, 50.0000, 1420.0000
1600012, 55.0000, 1420.0000
1600013, 60.0000, 1420.0000
1600014, 65.0000, 1420.0000
1600015, 70.0000, 1420.0000
1600016, 75.0000, 1420.0000
1600017, 80.0000, 1420.0000
1600018, 85.0000, 1420.0000
1600019, 90.0000, 1420.0000
1600020, 95.0000, 1420.0000
1600021, 100.0000, 1420.0000
1600022, 105.0000, 1420.0000
1600023, 110.0000, 1420.0000
1600024, 115.0000, 1420.0000
1600025, 120.0000, 1420.0000
1600026, 125.0000, 1420.0000
1600027, 130.0000, 1420.0000
1600028, 135.0000, 1420.0000
1600029, 140.0000, 1420.0000
1600030, 145.0000, 1420.0000
1600031, 150.0000, 1420.0000
1600032, 155.0000, 1420.0000
1600033, 160.0000, 1420.0000
1600034, 165.0000, 1420.0000
1600035, 170.0000, 1420.0000
1600036, 175.0000, 1420.0000
1600037, 180.0000, 1420.0000
1600038, 185.0000, 1420.0000
1600039, 190.0000, 1420.0000
1600040, 195.0000, 1420.0000
1600041, 200.0000, 1420.0000
1600042, 205.0000, 1420.0000
1600043, 210.0000, 1420.0000
1600044, 215.0000, 1420.0000
1600045, 220.0000, 1420.0000
1600046, 225.0000, 1420.0000
1600047, 230.0000, 1420.0000
1600048, 235.0000, 1420.0000
1600049, 240.0000, 1420.0000
1600050, 245.0000, 1420.0000
1600051, 250.0000, 1420.0000
1600052, 255.0000, 1420.0000
1600053, 260.0000, 1420.0000
1600054, 265.0000, 1420.0000
1600055, 270.0000, 1420.0000
1600056, 275.0000, 1420.0000
1600057, 280.0000, 1420.0000
1600058, 285.0000, 1420.0000
1600059, 290.0000, 1420.0000
1600060, 295.0000, 1420.0000
1600061, 300.0000, 1420.0000
1600062, 306.0000, 1420.0000
1600063, 313.2000, 1420.0000
1600064, 321.8400, 1420.0000
1600065, 332.2080, 1420.0000
1600066, 344.6496, 1420.0000
1600067, 359.5795, 1420.0000
1600068, 377.4954, 1420.0000
1600069, 398.9945, 1420.0000
1600070, 424.7934, 1420.0000
1600071, 455.7521, 1420.0000
1600072, 492.9025, 1420.0000
1600073, 537.4830, 1420.0000
1600074, 590.9796, 1420.0000
1600075, 655.1755, 1420.0000
1600076, 732.2106, 1420.0000
1600077, 824.6528, 1420.0000
1600078, 935.5833, 1420.0000
1600079, 1068.7000, 1420.0000
1600080, 1228.4400, 1420.0000
1600081, 1420.1280, 1420.0000
1600082, 1650.1536, 1420.0000
1600083, 1926.1843, 1420.0000
1600084, 2000.0000, 1420.0000
1700001, 0.0000, 1430.0000
1700002, 5.0000, 1430.0000
1700003, 10.0000, 1430.0000
1700004, 15.0000, 1430.0000
1700005, 20.0000, 1430.0000
1700006, 25.0000, 1430.0000
1700007, 30.0000, 1430.0000
1700008, 35.0000, 1430.0000
1700009, 40.0000, 1430.0000
1700010, 45.0000, 1430.0000
1700011, 50.0000, 1430.0000
1700012, 55.0000, 1430.0000
1700013, 60.0000, 1430.0000
1700014, 65.0000, 1430.0000
1700015, 70.0000, 1430.0000
1700016, 75.0000, 1430.0000
1700017, 80.0000, 1430.0000
1700018, 85.0000, 1430.0000
1700019, 90.0000, 1430.0000
1700020, 95.0000, 1430.0000
1700021, 100.0000, 1430.0000
1700022, 105.0000, 1430.0000
1700023, 110.0000, 1430.0000
1700024, 115.0000, 1430.0000
1700025, 120.0000, 1430.0000
1700026, 125.0000, 1430.0000
1700027, 130.0000, 1430.0000
1700028, 135.0000, 1430.0000
1700029, 140.0000, 1430.0000
1700030, 145.0000, 1430.0000
1700031, 150.0000, 1430.0000
1700032, 155.0000, 1430.0000
1700033, 160.0000, 1430.0000
1700034, 165.0000, 1430.0000
1700035, 170.0000, 1430.0000
1700036, 175.0000, 1430.0000
1700037, 180.0000, 1430.0000
1700038, 185.0000, 1430.0000
1700039, 190.0000, 1430.0000
1700040, 195.0000, 1430.0000
1700041, 200.0000, 1430.0000
1700042, 205.0000, 1430.0000
1700043, 210.0000, 1430.0000
1700044, 215.0000, 1430.0000
1700045, 220.0000, 1430.0000
1700046, 225.0000, 1430.0000
1700047, 230.0000, 1430.0000
1700048, 235.0000, 1430.0000
1700049, 240.0000, 1430.0000
1700050, 245.0000, 1430.0000
1700051, 250.0000, 1430.0000
1700052, 255.0000, 1430.0000
1700053, 260.0000, 1430.0000
1700054, 265.0000, 1430.0000
1700055, 270.0000, 1430.0000
1700056, 275.0000, 1430.0000
1700057, 280.0000, 1430.0000
1700058, 285.0000, 1430.0000
1700059, 290.0000, 1430.0000
1700060, 295.0000, 1430.0000
1700061, 300.0000, 1430.0000
1700062, 306.0000, 1430.0000
1700063, 313.2000, 1430.0000
1700064, 321.8400, 1430.0000
1700065, 332.2080, 1430.0000
1700066, 344.6496, 1430.0000
1700067, 359.5795, 1430.0000
1700068, 377.4954, 1430.0000
1700069, 398.9945, 1430.0000
1700070, 424.7934, 1430.0000
1700071, 455.7521, 1430.0000
1700072, 492.9025, 1430.0000
1700073, 537.4830, 1430.0000
1700074, 590.9796, 1430.0000
1700075, 655.1755, 1430.0000
1700076, 732.2106, 1430.0000
1700077, 824.6528, 1430.0000
1700078, 935.5833, 1430.0000
1700079, 1068.7000, 1430.0000
1700080, 1228.4400, 1430.0000
1700081, 1420.1280, 1430.0000
1700082, 1650.1536, 1430.0000
1700083, 1926.1843, 1430.0000
1700084, 2000.0000, 1430.0000
1800001, 0.0000, 1440.0000
1800002, 5.0000, 1440.0000
1800003, 10.0000, 1440.0000
1800004, 15.0000, 1440.0000
1800005, 20.0000, 1440.0000
1800006, 25.0000, 1440.0000
1800007, 30.0000, 1440.0000
1800008, 35.0000, 1440.0000
1800009, 40.0000, 1440.0000
1800010, 45.0000, 1440.0000
1800011, 50.0000, 1440.0000
1800012, 55.0000, 1440.0000
1800013, 60.0000, 1440.0000
1800014, 65.0000, 1440.0000
1800015, 70.0000, 1440.0000
1800016, 75.0000, 1440.0000
1800017, 80.0000, 1440.0000
1800018, 85.0000, 1440.0000
1800019, 90.0000, 1440.0000
1800020, 95.0000, 1440.0000
1800021, 100.0000, 1440.0000
1800022, 105.0000, 1440.0000
1800023, 110.0000, 1440.0000
1800024, 115.0000, 1440.0000
1800025, 120.0000, 1440.0000
1800026, 125.0000, 1440.0000
1800027, 130.0000, 1440.0000
1800028, 135.0000, 1440.0000
1800029, 140.0000, 1440.0000
1800030, 145.0000, 1440.0000
1800031, 150.0000, 1440.0000
1800032, 155.0000, 1440.0000
1800033, 160.0000, 1440.0000
1800034, 165.0000, 1440.0000
1800035, 170.0000, 1440.0000
1800036, 175.0000, 1440.0000
1800037, 180.0000, 1440.0000
1800038, 185.0000, 1440.0000
1800039, 190.0000, 1440.0000
1800040, 195.0000, 1440.0000
1800041, 200.0000, 1440.0000
1800042, 205.0000, 1440.0000
1800043, 210.0000, 1440.0000
1800044, 215.0000, 1440.0000
1800045, 220.0000, 1440.0000
1800046, 225.0000, 1440.0000
1800047, 230.0000, 1440.0000
1800048, 235.0000, 1440.0000
1800049, 240.0000, 1440.0000
1800050, 245.0000, 1440.0000
1800051, 250.0000, 1440.0000
1800052, 255.0000, 1440.0000
1800053, 260.0000, 1440.0000
1800054, 265.0000, 1440.0000
1800055, 270.0000, 1440.0000
1800056, 275.0000, 1440.0000
1800057, 280.0000, 1440.0000
1800058, 285.0000, 1440.0000
1800059, 290.0000, 1440.0000
1800060, 295.0000, 1440.0000
1800061, 300.0000, 1440.0000
1800062, 306.0000, 1440.0000
1800063, 313.2000, 1440.0000
1800064, 321.8400, 1440.0000
1800065, 332.2080, 1440.0000
1800066, 344.6496, 1440.0000
1800067, 359.5795, 1440.0000
1800068, 377.4954, 1440.0000
1800069, 398.9945, 1440.0000
1800070, 424.7934, 1440.0000
1800071, 455.7521, 1440.0000
1800072, 492.9025, 1440.0000
1800073, 537.4830, 1440.0000
1800074, 590.9796, 1440.0000
1800075, 655.1755, 1440.0000
1800076, 732.2106, 1440.0000
1800077, 824.6528, 1440.0000
1800078, 935.5833, 1440.0000
1800079, 1068.7000, 1440.0000
1800080, 1228.4400, 1440.0000
1800081, 1420.1280, 1440.0000
1800082, 1650.1536, 1440.0000
1800083, 1926.1843, 1440.0000
1800084, 2000.0000, 1440.0000
1900001, 0.0000, 1450.0000
1900002, 5.0000, 1450.0000
1900003, 10.0000, 1450.0000
1900004, 15.0000, 1450.0000
1900005, 20.0000, 1450.0000
1900006, 25.0000, 1450.0000
1900007, 30.0000, 1450.0000
1900008, 35.0000, 1450.0000
1900009, 40.0000, 1450.0000
1900010, 45.0000, 1450.0000
1900011, 50.0000, 1450.0000
1900012, 55.0000, 1450.0000
1900013, 60.0000, 1450.0000
1900014, 65.0000, 1450.0000
1900015, 70.0000, 1450.0000
1900016, 75.0000, 1450.0000
1900017, 80.0000, 1450.0000
1900018, 85.0000, 1450.0000
1900019, 90.0000, 1450.0000
1900020, 95.0000, 1450.0000
1900021, 100.0000, 1450.0000
1900022, 105.0000, 1450.0000
1900023, 110.0000, 1450.0000
1900024, 115.0000, 1450.0000
1900025, 120.0000, 1450.0000
1900026, 125.0000, 1450.0000
1900027, 130.0000, 1450.0000
1900028, 135.0000, 1450.0000
1900029, 140.0000, 1450.0000
1900030, 145.0000, 1450.0000
1900031, 150.0000, 1450.0000
1900032, 155.0000, 1450.0000
1900033, 160.0000, 1450.0000
1900034, 165.0000, 1450.0000
1900035, 170.0000, 1450.0000
1900036, 175.0000, 1450.0000
1900037, 180.0000, 1450.0000
1900038, 185.0000, 1450.0000
1900039, 190.0000, 1450.0000
1900040, 195.0000, 1450.0000
1900041, 200.0000, 1450.0000
1900042, 205.0000, 1450.0000
1900043, 210.0000, 1450.0000
1900044, 215.0000, 1450.0000
1900045, 220.0000, 1450.0000
1900046, 225.0000, 1450.0000
1900047, 230.0000, 1450.0000
1900048, 235.0000, 1450.0000
1900049, 240.0000, 1450.0000
1900050, 245.0000, 1450.0000
1900051, 250.0000, 1450.0000
1900052, 255.0000, 1450.0000
1900053, 260.0000, 1450.0000
1900054, 265.0000, 1450.0000
1900055, 270.0000, 1450.0000
1900056, 275.0000, 1450.0000
1900057, 280.0000, 1450.0000
1900058, 285.0000, 1450.0000
1900059, 290.0000, 1450.0000
1900060, 295.0000, 1450.0000
1900061, 300.0000, 1450.0000
1900062, 306.0000, 1450.0000
1900063, 313.2000, 1450.0000
1900064, 321.8400, 1450.0000
1900065, 332.2080, 1450.0000
1900066, 344.6496, 1450.0000
1900067, 359.5795, 1450.0000
1900068, 377.4954, 1450.0000
1900069, 398.9945, 1450.0000
1900070, 424.7934, 1450.0000
1900071, 455.7521, 1450.0000
1900072, 492.9025, 1450.0000
1900073, 537.4830, 1450.0000
1900074, 590.9796, 1450.0000
1900075, 655.1755, 1450.0000
1900076, 732.2106, 1450.0000
1900077, 824.6528, 1450.0000
1900078, 935.5833, 1450.0000
1900079, 1068.7000, 1450.0000
1900080, 1228.4400, 1450.0000
1900081, 1420.1280, 1450.0000
1900082, 1650.1536, 1450.0000
1900083, 1926.1843, 1450.0000
1900084, 2000.0000, 1450.0000
2000001, 0.0000, 1460.0000
2000002, 5.0000, 1460.0000
2000003, 10.0000, 1460.0000
2000004, 15.0000, 1460.0000
2000005, 20.0000, 1460.0000
2000006, 25.0000, 1460.0000
2000007, 30.0000, 1460.0000
2000008, 35.0000, 1460.0000
2000009, 40.0000, 1460.0000
2000010, 45.0000, 1460.0000
2000011, 50.0000, 1460.0000
2000012, 55.0000, 1460.0000
2000013, 60.0000, 1460.0000
2000014, 65.0000, 1460.0000
2000015, 70.0000, 1460.0000
2000016, 75.0000, 1460.0000
2000017, 80.0000, 1460.0000
2000018, 85.0000, 1460.0000
2000019, 90.0000, 1460.0000
2000020, 95.0000, 1460.0000
2000021, 100.0000, 1460.0000
2000022, 105.0000, 1460.0000
2000023, 110.0000, 1460.0000
2000024, 115.0000, 1460.0000
2000025, 120.0000, 1460.0000
2000026, 125.0000, 1460.0000
2000027, 130.0000, 1460.0000
2000028, 135.0000, 1460.0000
2000029, 140.0000, 1460.0000
2000030, 145.0000, 1460.0000
2000031, 150.0000, 1460.0000
2000032, 155.0000, 1460.0000
2000033, 160.0000, 1460.0000
2000034, 165.0000, 1460.0000
2000035, 170.0000, 1460.0000
2000036, 175.0000, 1460.0000
2000037, 180.0000, 1460.0000
2000038, 185.0000, 1460.0000
2000039, 190.0000, 1460.0000
2000040, 195.0000, 1460.0000
2000041, 200.0000, 1460.0000
2000042, 205.0000, 1460.0000
2000043, 210.0000, 1460.0000
2000044, 215.0000, 1460.0000
2000045, 220.0000, 1460.0000
2000046, 225.0000, 1460.0000
2000047, 230.0000, 1460.0000
2000048, 235.0000, 1460.0000
2000049, 240.0000, 1460.0000
2000050, 245.0000, 1460.0000
2000051, 250.0000, 1460.0000
2000052, 255.0000, 1460.0000
2000053, 260.0000, 1460.0000
2000054, 265.0000, 1460.0000
2000055, 270.0000, 1460.0000
2000056, 275.0000, 1460.0000
2000057, 280.0000, 1460.0000
2000058, 285.0000, 1460.0000
2000059, 290.0000, 1460.0000
2000060, 295.0000, 1460.0000
2000061, 300.0000, 1460.0000
2000062, 306.0000, 1460.0000
2000063, 313.2000, 1460.0000
2000064, 321.8400, 1460.0000
2000065, 332.2080, 1460.0000
2000066, 344.6496, 1460.0000
2000067, 359.5795, 1460.0000
2000068, 377.4954, 1460.0000
2000069, 398.9945, 1460.0000
2000070, 424.7934, 1460.0000
2000071, 455.7521, 1460.0000
2000072, 492.9025, 1460.0000
2000073, 537.4830, 1460.0000
2000074, 590.9796, 1460.0000
2000075, 655.1755, 1460.0000
2000076, 732.2106, 1460.0000
2000077, 824.6528, 1460.0000
2000078, 935.5833, 1460.0000
2000079, 1068.7000, 1460.0000
2000080, 1228.4400, 1460.0000
2000081, 1420.1280, 1460.0000
2000082, 1650.1536, 1460.0000
2000083, 1926.1843, 1460.0000
2000084, 2000.0000, 1460.0000
2100001, 0.0000, 1470.0000
2100002, 5.0000, 1470.0000
2100003, 10.0000, 1470.0000
2100004, 15.0000, 1470.0000
2100005, 20.0000, 1470.0000
2100006, 25.0000, 1470.0000
2100007, 30.0000, 1470.0000
2100008, 35.0000, 1470.0000
2100009, 40.0000, 1470.0000
2100010, 45.0000, 1470.0000
2100011, 50.0000, 1470.0000
2100012, 55.0000, 1470.0000
2100013, 60.0000, 1470.0000
2100014, 65.0000, 1470.0000
2100015, 70.0000, 1470.0000
2100016, 75.0000, 1470.0000
2100017, 80.0000, 1470.0000
2100018, 85.0000, 1470.0000
2100019, 90.0000, 1470.0000
2100020, 95.0000, 1470.0000
2100021, 100.0000, 1470.0000
2100022, 105.0000, 1470.0000
2100023, 110.0000, 1470.0000
2100024, 115.0000, 1470.0000
2100025, 120.0000, 1470.0000
2100026, 125.0000, 1470.0000
2100027, 130.0000, 1470.0000
2100028, 135.0000, 1470.0000
2100029, 140.0000, 1470.0000
2100030, 145.0000, 1470.0000
2100031, 150.0000, 1470.0000
2100032, 155.0000, 1470.0000
2100033, 160.0000, 1470.0000
2100034, 165.0000, 1470.0000
2100035, 170.0000, 1470.0000
2100036, 175.0000, 1470.0000
2100037, 180.0000, 1470.0000
2100038, 185.0000, 1470.0000
2100039, 190.0000, 1470.0000
2100040, 195.0000, 1470.0000
2100041, 200.0000, 1470.0000
2100042, 205.0000, 1470.0000
2100043, 210.0000, 1470.0000
2100044, 215.0000, 1470.0000
2100045, 220.0000, 1470.0000
2100046, 225.0000, 1470.0000
2100047, 230.0000, 1470.0000
2100048, 235.0000, 1470.0000
2100049, 240.0000, 1470.0000
2100050, 245.0000, 1470.0000
2100051, 250.0000, 1470.0000
2100052, 255.0000, 1470.0000
2100053, 260.0000, 1470.0000
2100054, 265.0000, 1470.0000
2100055, 270.0000, 1470.0000
2100056, 275.0000, 1470.0000
2100057, 280.0000, 1470.0000
2100058, 285.0000, 1470.0000
2100059, 290.0000, 1470.0000
2100060, 295.0000, 1470.0000
2100061, 300.0000, 1470.0000
2100062, 306.0000, 1470.0000
2100063, 313.2000, 1470.0000
2100064, 321.8400, 1470.0000
2100065, 332.2080, 1470.0000
2100066, 344.6496, 1470.0000
2100067, 359.5795, 1470.0000
2100068, 377.4954, 1470.0000
2100069, 398.9945, 1470.0000
2100070, 424.7934, 1470.0000
2100071, 455.7521, 1470.0000
2100072, 492.9025, 1470.0000
2100073, 537.4830, 1470.0000
2100074, 590.9796, 1470.0000
2100075, 655.1755, 1470.0000
2100076, 732.2106, 1470.0000
2100077, 824.6528, 1470.0000
2100078, 935.5833, 1470.0000
2100079, 1068.7000, 1470.0000
2100080, 1228.4400, 1470.0000
2100081, 1420.1280, 1470.0000
2100082, 1650.1536, 1470.0000
2100083, 1926.1843, 1470.0000
2100084, 2000.0000, 1470.0000
2200001, 0.0000, 1480.0000
2200002, 5.0000, 1480.0000
2200003, 10.0000, 1480.0000
2200004, 15.0000, 1480.0000
2200005, 20.0000, 1480.0000
2200006, 25.0000, 1480.0000
2200007, 30.0000, 1480.0000
2200008, 35.0000, 1480.0000
2200009, 40.0000, 1480.0000
2200010, 45.0000, 1480.0000
2200011, 50.0000, 1480.0000
2200012, 55.0000, 1480.0000
2200013, 60.0000, 1480.0000
2200014, 65.0000, 1480.0000
2200015, 70.0000, 1480.0000
2200016, 75.0000, 1480.0000
2200017, 80.0000, 1480.0000
2200018, 85.0000, 1480.0000
2200019, 90.0000, 1480.0000
2200020, 95.0000, 1480.0000
2200021, 100.0000, 1480.0000
2200022, 105.0000, 1480.0000
2200023, 110.0000, 1480.0000
2200024, 115.0000, 1480.0000
2200025, 120.0000, 1480.0000
2200026, 125.0000, 1480.0000
2200027, 130.0000, 1480.0000
2200028, 135.0000, 1480.0000
2200029, 140.0000, 1480.0000
2200030, 145.0000, 1480.0000
2200031, 150.0000, 1480.0000
2200032, 155.0000, 1480.0000
2200033, 160.0000, 1480.0000
2200034, 165.0000, 1480.0000
2200035, 170.0000, 1480.0000
2200036, 175.0000, 1480.0000
2200037, 180.0000, 1480.0000
2200038, 185.0000, 1480.0000
2200039, 190.0000, 1480.0000
2200040, 195.0000, 1480.0000
2200041, 200.0000, 1480.0000
2200042, 205.0000, 1480.0000
2200043, 210.0000, 1480.0000
2200044, 215.0000, 1480.0000
2200045, 220.0000, 1480.0000
2200046, 225.0000, 1480.0000
2200047, 230.0000, 1480.0000
2200048, 235.0000, 1480.0000
2200049, 240.0000, 1480.0000
2200050, 245.0000, 1480.0000
2200051, 250.0000, 1480.0000
2200052, 255.0000, 1480.0000
2200053, 260.0000, 1480.0000
2200054, 265.0000, 1480.0000
2200055, 270.0000, 1480.0000
2200056, 275.0000, 1480.0000
2200057, 280.0000, 1480.0000
2200058, 285.0000, 1480.0000
2200059, 290.0000, 1480.0000
2200060, 295.0000, 1480.0000
2200061, 300.0000, 1480.0000
2200062, 306.0000, 1480.0000
2200063, 313.2000, 1480.0000
2200064, 321.8400, 1480.0000
2200065, 332.2080, 1480.0000
2200066, 344.6496, 1480.0000
2200067, 359.5795, 1480.0000
2200068, 377.4954, 1480.0000
2200069, 398.9945, 1480.0000
2200070, 424.7934, 1480.0000
2200071, 455.7521, 1480.0000
2200072, 492.9025, 1480.0000
2200073, 537.4830, 1480.0000
2200074, 590.9796, 1480.0000
2200075, 655.1755, 1480.0000
2200076, 732.2106, 1480.0000
2200077, 824.6528, 1480.0000
2200078, 935.5833, 1480.0000
2200079, 1068.7000, 1480.0000
2200080, 1228.4400, 1480.0000
2200081, 1420.1280, 1480.0000
2200082, 1650.1536, 1480.0000
2200083, 1926.1843, 1480.0000
2200084, 2000.0000, 1480.0000
2300001, 0.0000, 1482.5000
2300002, 5.0000, 1482.5000
2300003, 10.0000, 1482.5000
2300004, 15.0000, 1482.5000
2300005, 20.0000, 1482.5000
2300006, 25.0000, 1482.5000
2300007, 30.0000, 1482.5000
2300008, 35.0000, 1482.5000
2300009, 40.0000, 1482.5000
2300010, 45.0000, 1482.5000
2300011, 50.0000, 1482.5000
2300012, 55.0000, 1482.5000
2300013, 60.0000, 1482.5000
2300014, 65.0000, 1482.5000
2300015, 70.0000, 1482.5000
2300016, 75.0000, 1482.5000
2300017, 80.0000, 1482.5000
2300018, 85.0000, 1482.5000
2300019, 90.0000, 1482.5000
2300020, 95.0000, 1482.5000
2300021, 100.0000, 1482.5000
2300022, 105.0000, 1482.5000
2300023, 110.0000, 1482.5000
2300024, 115.0000, 1482.5000
2300025, 120.0000, 1482.5000
2300026, 125.0000, 1482.5000
2300027, 130.0000, 1482.5000
2300028, 135.0000, 1482.5000
2300029, 140.0000, 1482.5000
2300030, 145.0000, 1482.5000
2300031, 150.0000, 1482.5000
2300032, 155.0000, 1482.5000
2300033, 160.0000, 1482.5000
2300034, 165.0000, 1482.5000
2300035, 170.0000, 1482.5000
2300036, 175.0000, 1482.5000
2300037, 180.0000, 1482.5000
2300038, 185.0000, 1482.5000
2300039, 190.0000, 1482.5000
2300040, 195.0000, 1482.5000
2300041, 200.0000, 1482.5000
2300042, 205.0000, 1482.5000
2300043, 210.0000, 1482.5000
2300044, 215.0000, 1482.5000
2300045, 220.0000, 1482.5000
2300046, 225.0000, 1482.5000
2300047, 230.0000, 1482.5000
2300048, 235.0000, 1482.5000
2300049, 240.0000, 1482.5000
2300050, 245.0000, 1482.5000
2300051, 250.0000, 1482.5000
2300052, 255.0000, 1482.5000
2300053, 260.0000, 1482.5000
2300054, 265.0000, 1482.5000
2300055, 270.0000, 1482.5000
2300056, 275.0000, 1482.5000
2300057, 280.0000, 1482.5000
2300058, 285.0000, 1482.5000
2300059, 290.0000, 1482.5000
2300060, 295.0000, 1482.5000
2300061, 300.0000, 1482.5000
2300062, 306.0000, 1482.5000
2300063, 313.2000, 1482.5000
2300064, 321.8400, 1482.5000
2300065, 332.2080, 1482.5000
2300066, 344.6496, 1482.5000
2300067, 359.5795, 1482.5000
2300068, 377.4954, 1482.5000
2300069, 398.9945, 1482.5000
2300070, 424.7934, 1482.5000
2300071, 455.7521, 1482.5000
2300072, 492.9025, 1482.5000
2300073, 537.4830, 1482.5000
2300074, 590.9796, 1482.5000
2300075, 655.1755, 1482.5000
2300076, 732.2106, 1482.5000
2300077, 824.6528, 1482.5000
2300078, 935.5833, 1482.5000
2300079, 1068.7000, 1482.5000
2300080, 1228.4400, 1482.5000
2300081, 1420.1280, 1482.5000
2300082, 1650.1536, 1482.5000
2300083, 1926.1843, 1482.5000
2300084, 2000.0000, 1482.5000
2400001, 0.0000, 1485.0000
2400002, 5.0000, 1485.0000
2400003, 10.0000, 1485.0000
2400004, 15.0000, 1485.0000
2400005, 20.0000, 1485.0000
2400006, 25.0000, 1485.0000
2400007, 30.0000, 1485.0000
2400008, 35.0000, 1485.0000
2400009, 40.0000, 1485.0000
2400010, 45.0000, 1485.0000
2400011, 50.0000, 1485.0000
2400012, 55.0000, 1485.0000
2400013, 60.0000, 1485.0000
2400014, 65.0000, 1485.0000
2400015, 70.0000, 1485.0000
2400016, 75.0000, 1485.0000
2400017, 80.0000, 1485.0000
2400018, 85.0000, 1485.0000
2400019, 90.0000, 1485.0000
2400020, 95.0000, 1485.0000
2400021, 100.0000, 1485.0000
2400022, 105.0000, 1485.0000
2400023, 110.0000, 1485.0000
2400024, 115.0000, 1485.0000
2400025, 120.0000, 1485.0000
2400026, 125.0000, 1485.0000
2400027, 130.0000, 1485.0000
2400028, 135.0000, 1485.0000
2400029, 140.0000, 1485.0000
2400030, 145.0000, 1485.0000
2400031, 150.0000, 1485.0000
2400032, 155.0000, 1485.0000
2400033, 160.0000, 1485.0000
2400034, 165.0000, 1485.0000
2400035, 170.0000, 1485.0000
2400036, 175.0000, 1485.0000
2400037, 180.0000, 1485.0000
2400038, 185.0000, 1485.0000
2400039, 190.0000, 1485.0000
2400040, 195.0000, 1485.0000
2400041, 200.0000, 1485.0000
2400042, 205.0000, 1485.0000
2400043, 210.0000, 1485.0000
2400044, 215.0000, 1485.0000
2400045, 220.0000, 1485.0000
2400046, 225.0000, 1485.0000
2400047, 230.0000, 1485.0000
2400048, 235.0000, 1485.0000
2400049, 240.0000, 1485.0000
2400050, 245.0000, 1485.0000
2400051, 250.0000, 1485.0000
2400052, 255.0000, 1485.0000
2400053, 260.0000, 1485.0000
2400054, 265.0000, 1485.0000
2400055, 270.0000, 1485.0000
2400056, 275.0000, 1485.0000
2400057, 280.0000, 1485.0000
2400058, 285.0000, 1485.0000
2400059, 290.0000, 1485.0000
2400060, 295.0000, 1485.0000
2400061, 300.0000, 1485.0000
2400062, 306.0000, 1485.0000
2400063, 313.2000, 1485.0000
2400064, 321.8400, 1485.0000
2400065, 332.2080, 1485.0000
2400066, 344.6496, 1485.0000
2400067, 359.5795, 1485.0000
2400068, 377.4954, 1485.0000
2400069, 398.9945, 1485.0000
2400070, 424.7934, 1485.0000
2400071, 455.7521, 1485.0000
2400072, 492.9025, 1485.0000
2400073, 537.4830, 1485.0000
2400074, 590.9796, 1485.0000
2400075, 655.1755, 1485.0000
2400076, 732.2106, 1485.0000
2400077, 824.6528, 1485.0000
2400078, 935.5833, 1485.0000
2400079, 1068.7000, 1485.0000
2400080, 1228.4400, 1485.0000
2400081, 1420.1280, 1485.0000
2400082, 1650.1536, 1485.0000
2400083, 1926.1843, 1485.0000
2400084, 2000.0000, 1485.0000
2500001, 0.0000, 1487.5000
2500002, 5.0000, 1487.5000
2500003, 10.0000, 1487.5000
2500004, 15.0000, 1487.5000
2500005, 20.0000, 1487.5000
2500006, 25.0000, 1487.5000
2500007, 30.0000, 1487.5000
2500008, 35.0000, 1487.5000
2500009, 40.0000, 1487.5000
2500010, 45.0000, 1487.5000
2500011, 50.0000, 1487.5000
2500012, 55.0000, 1487.5000
2500013, 60.0000, 1487.5000
2500014, 65.0000, 1487.5000
2500015, 70.0000, 1487.5000
2500016, 75.0000, 1487.5000
2500017, 80.0000, 1487.5000
2500018, 85.0000, 1487.5000
2500019, 90.0000, 1487.5000
2500020, 95.0000, 1487.5000
2500021, 100.0000, 1487.5000
2500022, 105.0000, 1487.5000
2500023, 110.0000, 1487.5000
2500024, 115.0000, 1487.5000
2500025, 120.0000, 1487.5000
2500026, 125.0000, 1487.5000
2500027, 130.0000, 1487.5000
2500028, 135.0000, 1487.5000
2500029, 140.0000, 1487.5000
2500030, 145.0000, 1487.5000
2500031, 150.0000, 1487.5000
2500032, 155.0000, 1487.5000
2500033, 160.0000, 1487.5000
2500034, 165.0000, 1487.5000
2500035, 170.0000, 1487.5000
2500036, 175.0000, 1487.5000
2500037, 180.0000, 1487.5000
2500038, 185.0000, 1487.5000
2500039, 190.0000, 1487.5000
2500040, 195.0000, 1487.5000
2500041, 200.0000, 1487.5000
2500042, 205.0000, 1487.5000
2500043, 210.0000, 1487.5000
2500044, 215.0000, 1487.5000
2500045, 220.0000, 1487.5000
2500046, 225.0000, 1487.5000
2500047, 230.0000, 1487.5000
2500048, 235.0000, 1487.5000
2500049, 240.0000, 1487.5000
2500050, 245.0000, 1487.5000
2500051, 250.0000, 1487.5000
2500052, 255.0000, 1487.5000
2500053, 260.0000, 1487.5000
2500054, 265.0000, 1487.5000
2500055, 270.0000, 1487.5000
2500056, 275.0000, 1487.5000
2500057, 280.0000, 1487.5000
2500058, 285.0000, 1487.5000
2500059, 290.0000, 1487.5000
2500060, 295.0000, 1487.5000
2500061, 300.0000, 1487.5000
2500062, 306.0000, 1487.5000
2500063, 313.2000, 1487.5000
2500064, 321.8400, 1487.5000
2500065, 332.2080, 1487.5000
2500066, 344.6496, 1487.5000
2500067, 359.5795, 1487.5000
2500068, 377.4954, 1487.5000
2500069, 398.9945, 1487.5000
2500070, 424.7934, 1487.5000
2500071, 455.7521, 1487.5000
2500072, 492.9025, 1487.5000
2500073, 537.4830, 1487.5000
2500074, 590.9796, 1487.5000
2500075, 655.1755, 1487.5000
2500076, 732.2106, 1487.5000
2500077, 824.6528, 1487.5000
2500078, 935.5833, 1487.5000
2500079, 1068.7000, 1487.5000
2500080, 1228.4400, 1487.5000
2500081, 1420.1280, 1487.5000
2500082, 1650.1536, 1487.5000
2500083, 1926.1843, 1487.5000
2500084, 2000.0000, 1487.5000
2600001, 0.0000, 1490.0000
2600002, 5.0000, 1490.0000
2600003, 10.0000, 1490.0000
2600004, 15.0000, 1490.0000
2600005, 20.0000, 1490.0000
2600006, 25.0000, 1490.0000
2600007, 30.0000, 1490.0000
2600008, 35.0000, 1490.0000
2600009, 40.0000, 1490.0000
2600010, 45.0000, 1490.0000
2600011, 50.0000, 1490.0000
2600012, 55.0000, 1490.0000
2600013, 60.0000, 1490.0000
2600014, 65.0000, 1490.0000
2600015, 70.0000, 1490.0000
2600016, 75.0000, 1490.0000
2600017, 80.0000, 1490.0000
2600018, 85.0000, 1490.0000
2600019, 90.0000, 1490.0000
2600020, 95.0000, 1490.0000
2600021, 100.0000, 1490.0000
2600022, 105.0000, 1490.0000
2600023, 110.0000, 1490.0000
2600024, 115.0000, 1490.0000
2600025, 120.0000, 1490.0000
2600026, 125.0000, 1490.0000
2600027, 130.0000, 1490.0000
2600028, 135.0000, 1490.0000
2600029, 140.0000, 1490.0000
2600030, 145.0000, 1490.0000
2600031, 150.0000, 1490.0000
2600032, 155.0000, 1490.0000
2600033, 160.0000, 1490.0000
2600034, 165.0000, 1490.0000
2600035, 170.0000, 1490.0000
2600036, 175.0000, 1490.0000
2600037, 180.0000, 1490.0000
2600038, 185.0000, 1490.0000
2600039, 190.0000, 1490.0000
2600040, 195.0000, 1490.0000
2600041, 200.0000, 1490.0000
2600042, 205.0000, 1490.0000
2600043, 210.0000, 1490.0000
2600044, 215.0000, 1490.0000
2600045, 220.0000, 1490.0000
2600046, 225.0000, 1490.0000
2600047, 230.0000, 1490.0000
2600048, 235.0000, 1490.0000
2600049, 240.0000, 1490.0000
2600050, 245.0000, 1490.0000
2600051, 250.0000, 1490.0000
2600052, 255.0000, 1490.0000
2600053, 260.0000, 1490.0000
2600054, 265.0000, 1490.0000
2600055, 270.0000, 1490.0000
2600056, 275.0000, 1490.0000
2600057, 280.0000, 1490.0000
2600058, 285.0000, 1490.0000
2600059, 290.0000, 1490.0000
2600060, 295.0000, 1490.0000
2600061, 300.0000, 1490.0000
2600062, 306.0000, 1490.0000
2600063, 313.2000, 1490.0000
2600064, 321.8400, 1490.0000
2600065, 332.2080, 1490.0000
2600066, 344.6496, 1490.0000
2600067, 359.5795, 1490.0000
2600068, 377.4954, 1490.0000
2600069, 398.9945, 1490.0000
2600070, 424.7934, 1490.0000
2600071, 455.7521, 1490.0000
2600072, 492.9025, 1490.0000
2600073, 537.4830, 1490.0000
2600074, 590.9796, 1490.0000
2600075, 655.1755, 1490.0000
2600076, 732.2106, 1490.0000
2600077, 824.6528, 1490.0000
2600078, 935.5833, 1490.0000
2600079, 1068.7000, 1490.0000
2600080, 1228.4400, 1490.0000
2600081, 1420.1280, 1490.0000
2600082, 1650.1536, 1490.0000
2600083, 1926.1843, 1490.0000
2600084, 2000.0000, 1490.0000
2700001, 0.0000, 1492.5000
2700002, 5.0000, 1492.5000
2700003, 10.0000, 1492.5000
2700004, 15.0000, 1492.5000
2700005, 20.0000, 1492.5000
2700006, 25.0000, 1492.5000
2700007, 30.0000, 1492.5000
2700008, 35.0000, 1492.5000
2700009, 40.0000, 1492.5000
2700010, 45.0000, 1492.5000
2700011, 50.0000, 1492.5000
2700012, 55.0000, 1492.5000
2700013, 60.0000, 1492.5000
2700014, 65.0000, 1492.5000
2700015, 70.0000, 1492.5000
2700016, 75.0000, 1492.5000
2700017, 80.0000, 1492.5000
2700018, 85.0000, 1492.5000
2700019, 90.0000, 1492.5000
2700020, 95.0000, 1492.5000
2700021, 100.0000, 1492.5000
2700022, 105.0000, 1492.5000
2700023, 110.0000, 1492.5000
2700024, 115.0000, 1492.5000
2700025, 120.0000, 1492.5000
2700026, 125.0000, 1492.5000
2700027, 130.0000, 1492.5000
2700028, 135.0000, 1492.5000
2700029, 140.0000, 1492.5000
2700030, 145.0000, 1492.5000
2700031, 150.0000, 1492.5000
2700032, 155.0000, 1492.5000
2700033, 160.0000, 1492.5000
2700034, 165.0000, 1492.5000
2700035, 170.0000, 1492.5000
2700036, 175.0000, 1492.5000
2700037, 180.0000, 1492.5000
2700038, 185.0000, 1492.5000
2700039, 190.0000, 1492.5000
2700040, 195.0000, 1492.5000
2700041, 200.0000, 1492.5000
2700042, 205.0000, 1492.5000
2700043, 210.0000, 1492.5000
2700044, 215.0000, 1492.5000
2700045, 220.0000, 1492.5000
2700046, 225.0000, 1492.5000
2700047, 230.0000, 1492.5000
2700048, 235.0000, 1492.5000
2700049, 240.0000, 1492.5000
2700050, 245.0000, 1492.5000
2700051, 250.0000, 1492.5000
2700052, 255.0000, 1492.5000
2700053, 260.0000, 1492.5000
2700054, 265.0000, 1492.5000
2700055, 270.0000, 1492.5000
2700056, 275.0000, 1492.5000
2700057, 280.0000, 1492.5000
2700058, 285.0000, 1492.5000
2700059, 290.0000, 1492.5000
2700060, 295.0000, 1492.5000
2700061, 300.0000, 1492.5000
2700062, 306.0000, 1492.5000
2700063, 313.2000, 1492.5000
2700064, 321.8400, 1492.5000
2700065, 332.2080, 1492.5000
2700066, 344.6496, 1492.5000
2700067, 359.5795, 1492.5000
2700068, 377.4954, 1492.5000
2700069, 398.9945, 1492.5000
2700070, 424.7934, 1492.5000
2700071, 455.7521, 1492.5000
2700072, 492.9025, 1492.5000
2700073, 537.4830, 1492.5000
2700074, 590.9796, 1492.5000
2700075, 655.1755, 1492.5000
2700076, 732.2106, 1492.5000
2700077, 824.6528, 1492.5000
2700078, 935.5833, 1492.5000
2700079, 1068.7000, 1492.5000
2700080, 1228.4400, 1492.5000
2700081, 1420.1280, 1492.5000
2700082, 1650.1536, 1492.5000
2700083, 1926.1843, 1492.5000
2700084, 2000.0000, 1492.5000
2800001, 0.0000, 1495.0000
2800002, 5.0000, 1495.0000
2800003, 10.0000, 1495.0000
2800004, 15.0000, 1495.0000
2800005, 20.0000, 1495.0000
2800006, 25.0000, 1495.0000
2800007, 30.0000, 1495.0000
2800008, 35.0000, 1495.0000
2800009, 40.0000, 1495.0000
2800010, 45.0000, 1495.0000
2800011, 50.0000, 1495.0000
2800012, 55.0000, 1495.0000
2800013, 60.0000, 1495.0000
2800014, 65.0000, 1495.0000
2800015, 70.0000, 1495.0000
2800016, 75.0000, 1495.0000
2800017, 80.0000, 1495.0000
2800018, 85.0000, 1495.0000
2800019, 90.0000, 1495.0000
2800020, 95.0000, 1495.0000
2800021, 100.0000, 1495.0000
2800022, 105.0000, 1495.0000
2800023, 110.0000, 1495.0000
2800024, 115.0000, 1495.0000
2800025, 120.0000, 1495.0000
2800026, 125.0000, 1495.0000
2800027, 130.0000, 1495.0000
2800028, 135.0000, 1495.0000
2800029, 140.0000, 1495.0000
2800030, 145.0000, 1495.0000
2800031, 150.0000, 1495.0000
2800032, 155.0000, 1495.0000
2800033, 160.0000, 1495.0000
2800034, 165.0000, 1495.0000
2800035, 170.0000, 1495.0000
2800036, 175.0000, 1495.0000
2800037, 180.0000, 1495.0000
2800038, 185.0000, 1495.0000
2800039, 190.0000, 1495.0000
2800040, 195.0000, 1495.0000
2800041, 200.0000, 1495.0000
2800042, 205.0000, 1495.0000
2800043, 210.0000, 1495.0000
2800044, 215.0000, 1495.0000
2800045, 220.0000, 1495.0000
2800046, 225.0000, 1495.0000
2800047, 230.0000, 1495.0000
2800048, 235.0000, 1495.0000
2800049, 240.0000, 1495.0000
2800050, 245.0000, 1495.0000
2800051, 250.0000, 1495.0000
2800052, 255.0000, 1495.0000
2800053, 260.0000, 1495.0000
2800054, 265.0000, 1495.0000
2800055, 270.0000, 1495.0000
2800056, 275.0000, 1495.0000
2800057, 280.0000, 1495.0000
2800058, 285.0000, 1495.0000
2800059, 290.0000, 1495.0000
2800060, 295.0000, 1495.0000
2800061, 300.0000, 1495.0000
2800062, 306.0000, 1495.0000
2800063, 313.2000, 1495.0000
2800064, 321.8400, 1495.0000
2800065, 332.2080, 1495.0000
2800066, 344.6496, 1495.0000
2800067, 359.5795, 1495.0000
2800068, 377.4954, 1495.0000
2800069, 398.9945, 1495.0000
2800070, 424.7934, 1495.0000
2800071, 455.7521, 1495.0000
2800072, 492.9025, 1495.0000
2800073, 537.4830, 1495.0000
2800074, 590.9796, 1495.0000
2800075, 655.1755, 1495.0000
2800076, 732.2106, 1495.0000
2800077, 824.6528, 1495.0000
2800078, 935.5833, 1495.0000
2800079, 1068.7000, 1495.0000
2800080, 1228.4400, 1495.0000
2800081, 1420.1280, 1495.0000
2800082, 1650.1536, 1495.0000
2800083, 1926.1843, 1495.0000
2800084, 2000.0000, 1495.0000
2900001, 0.0000, 1497.5000
2900002, 5.0000, 1497.5000
2900003, 10.0000, 1497.5000
2900004, 15.0000, 1497.5000
2900005, 20.0000, 1497.5000
2900006, 25.0000, 1497.5000
2900007, 30.0000, 1497.5000
2900008, 35.0000, 1497.5000
2900009, 40.0000, 1497.5000
2900010, 45.0000, 1497.5000
2900011, 50.0000, 1497.5000
2900012, 55.0000, 1497.5000
2900013, 60.0000, 1497.5000
2900014, 65.0000, 1497.5000
2900015, 70.0000, 1497.5000
2900016, 75.0000, 1497.5000
2900017, 80.0000, 1497.5000
2900018, 85.0000, 1497.5000
2900019, 90.0000, 1497.5000
2900020, 95.0000, 1497.5000
2900021, 100.0000, 1497.5000
2900022, 105.0000, 1497.5000
2900023, 110.0000, 1497.5000
2900024, 115.0000, 1497.5000
2900025, 120.0000, 1497.5000
2900026, 125.0000, 1497.5000
2900027, 130.0000, 1497.5000
2900028, 135.0000, 1497.5000
2900029, 140.0000, 1497.5000
2900030, 145.0000, 1497.5000
2900031, 150.0000, 1497.5000
2900032, 155.0000, 1497.5000
2900033, 160.0000, 1497.5000
2900034, 165.0000, 1497.5000
2900035, 170.0000, 1497.5000
2900036, 175.0000, 1497.5000
2900037, 180.0000, 1497.5000
2900038, 185.0000, 1497.5000
2900039, 190.0000, 1497.5000
2900040, 195.0000, 1497.5000
2900041, 200.0000, 1497.5000
2900042, 205.0000, 1497.5000
2900043, 210.0000, 1497.5000
2900044, 215.0000, 1497.5000
2900045, 220.0000, 1497.5000
2900046, 225.0000, 1497.5000
2900047, 230.0000, 1497.5000
2900048, 235.0000, 1497.5000
2900049, 240.0000, 1497.5000
2900050, 245.0000, 1497.5000
2900051, 250.0000, 1497.5000
2900052, 255.0000, 1497.5000
2900053, 260.0000, 1497.5000
2900054, 265.0000, 1497.5000
2900055, 270.0000, 1497.5000
2900056, 275.0000, 1497.5000
2900057, 280.0000, 1497.5000
2900058, 285.0000, 1497.5000
2900059, 290.0000, 1497.5000
2900060, 295.0000, 1497.5000
2900061, 300.0000, 1497.5000
2900062, 306.0000, 1497.5000
2900063, 313.2000, 1497.5000
2900064, 321.8400, 1497.5000
2900065, 332.2080, 1497.5000
2900066, 344.6496, 1497.5000
2900067, 359.5795, 1497.5000
2900068, 377.4954, 1497.5000
2900069, 398.9945, 1497.5000
2900070, 424.7934, 1497.5000
2900071, 455.7521, 1497.5000
2900072, 492.9025, 1497.5000
2900073, 537.4830, 1497.5000
2900074, 590.9796, 1497.5000
2900075, 655.1755, 1497.5000
2900076, 732.2106, 1497.5000
2900077, 824.6528, 1497.5000
2900078, 935.5833, 1497.5000
2900079, 1068.7000, 1497.5000
2900080, 1228.4400, 1497.5000
2900081, 1420.1280, 1497.5000
2900082, 1650.1536, 1497.5000
2900083, 1926.1843, 1497.5000
2900084, 2000.0000, 1497.5000
3000001, 0.0000, 1500.0000
3000002, 5.0000, 1500.0000
3000003, 10.0000, 1500.0000
3000004, 15.0000, 1500.0000
3000005, 20.0000, 1500.0000
3000006, 25.0000, 1500.0000
3000007, 30.0000, 1500.0000
3000008, 35.0000, 1500.0000
3000009, 40.0000, 1500.0000
3000010, 45.0000, 1500.0000
3000011, 50.0000, 1500.0000
3000012, 55.0000, 1500.0000
3000013, 60.0000, 1500.0000
3000014, 65.0000, 1500.0000
3000015, 70.0000, 1500.0000
3000016, 75.0000, 1500.0000
3000017, 80.0000, 1500.0000
3000018, 85.0000, 1500.0000
3000019, 90.0000, 1500.0000
3000020, 95.0000, 1500.0000
3000021, 100.0000, 1500.0000
3000022, 105.0000, 1500.0000
3000023, 110.0000, 1500.0000
3000024, 115.0000, 1500.0000
3000025, 120.0000, 1500.0000
3000026, 125.0000, 1500.0000
3000027, 130.0000, 1500.0000
3000028, 135.0000, 1500.0000
3000029, 140.0000, 1500.0000
3000030, 145.0000, 1500.0000
3000031, 150.0000, 1500.0000
3000032, 155.0000, 1500.0000
3000033, 160.0000, 1500.0000
3000034, 165.0000, 1500.0000
3000035, 170.0000, 1500.0000
3000036, 175.0000, 1500.0000
3000037, 180.0000, 1500.0000
3000038, 185.0000, 1500.0000
3000039, 190.0000, 1500.0000
3000040, 195.0000, 1500.0000
3000041, 200.0000, 1500.0000
3000042, 205.0000, 1500.0000
3000043, 210.0000, 1500.0000
3000044, 215.0000, 1500.0000
3000045, 220.0000, 1500.0000
3000046, 225.0000, 1500.0000
3000047, 230.0000, 1500.0000
3000048, 235.0000, 1500.0000
3000049, 240.0000, 1500.0000
3000050, 245.0000, 1500.0000
3000051, 250.0000, 1500.0000
3000052, 255.0000, 1500.0000
3000053, 260.0000, 1500.0000
3000054, 265.0000, 1500.0000
3000055, 270.0000, 1500.0000
3000056, 275.0000, 1500.0000
3000057, 280.0000, 1500.0000
3000058, 285.0000, 1500.0000
3000059, 290.0000, 1500.0000
3000060, 295.0000, 1500.0000
3000061, 300.0000, 1500.0000
3000062, 306.0000, 1500.0000
3000063, 313.2000, 1500.0000
3000064, 321.8400, 1500.0000
3000065, 332.2080, 1500.0000
3000066, 344.6496, 1500.0000
3000067, 359.5795, 1500.0000
3000068, 377.4954, 1500.0000
3000069, 398.9945, 1500.0000
3000070, 424.7934, 1500.0000
3000071, 455.7521, 1500.0000
3000072, 492.9025, 1500.0000
3000073, 537.4830, 1500.0000
3000074, 590.9796, 1500.0000
3000075, 655.1755, 1500.0000
3000076, 732.2106, 1500.0000
3000077, 824.6528, 1500.0000
3000078, 935.5833, 1500.0000
3000079, 1068.7000, 1500.0000
3000080, 1228.4400, 1500.0000
3000081, 1420.1280, 1500.0000
3000082, 1650.1536, 1500.0000
3000083, 1926.1843, 1500.0000
3000084, 2000.0000, 1500.0000
*ELEMENT, TYPE=CAX4R
1, 1, 2, 100002, 100001
2, 2, 3, 100003, 100002
3, 3, 4, 100004, 100003
4, 4, 5, 100005, 100004
5, 5, 6, 100006, 100005
6, 6, 7, 100007, 100006
7, 7, 8, 100008, 100007
8, 8, 9, 100009, 100008
9, 9, 10, 100010, 100009
10, 10, 11, 100011, 100010
11, 11, 12, 100012, 100011
12, 12, 13, 100013, 100012
13, 13, 14, 100014, 100013
14, 14, 15, 100015, 100014
15, 15, 16, 100016, 100015
16, 16, 17, 100017, 100016
17, 17, 18, 100018, 100017
18, 18, 19, 100019, 100018
19, 19, 20, 100020, 100019
20, 20, 21, 100021, 100020
21, 21, 22, 100022, 100021
22, 22, 23, 100023, 100022
23, 23, 24, 100024, 100023
24, 24, 25, 100025, 100024
25, 25, 26, 100026, 100025
26, 26, 27, 100027, 100026
27, 27, 28, 100028, 100027
28, 28, 29, 100029, 100028
29, 29, 30, 100030, 100029
30, 30, 31, 100031, 100030
31, 31, 32, 100032, 100031
32, 32, 33, 100033, 100032
33, 33, 34, 100034, 100033
34, 34, 35, 100035, 100034
35, 35, 36, 100036, 100035
36, 36, 37, 100037, 100036
37, 37, 38, 100038, 100037
38, 38, 39, 100039, 100038
39, 39, 40, 100040, 100039
40, 40, 41, 100041, 100040
41, 41, 42, 100042, 100041
42, 42, 43, 100043, 100042
43, 43, 44, 100044, 100043
44, 44, 45, 100045, 100044
45, 45, 46, 100046, 100045
46, 46, 47, 100047, 100046
47, 47, 48, 100048, 100047
48, 48, 49, 100049, 100048
49, 49, 50, 100050, 100049
50, 50, 51, 100051, 100050
51, 51, 52, 100052, 100051
52, 52, 53, 100053, 100052
53, 53, 54, 100054, 100053
54, 54, 55, 100055, 100054
55, 55, 56, 100056, 100055
56, 56, 57, 100057, 100056
57, 57, 58, 100058, 100057
58, 58, 59, 100059, 100058
59, 59, 60, 100060, 100059
60, 60, 61, 100061, 100060
61, 61, 62, 100062, 100061
62, 62, 63, 100063, 100062
63, 63, 64, 100064, 100063
64, 64, 65, 100065, 100064
65, 65, 66, 100066, 100065
66, 66, 67, 100067, 100066
67, 67, 68, 100068, 100067
68, 68, 69, 100069, 100068
69, 69, 70, 100070, 100069
70, 70, 71, 100071, 100070
71, 71, 72, 100072, 100071
72, 72, 73, 100073, 100072
73, 73, 74, 100074, 100073
74, 74, 75, 100075, 100074
75, 75, 76, 100076, 100075
76, 76, 77, 100077, 100076
77, 77, 78, 100078, 100077
78, 78, 79, 100079, 100078
79, 79, 80, 100080, 100079
80, 80, 81, 100081, 100080
81, 81, 82, 100082, 100081
82, 82, 83, 100083, 100082
83, 83, 84, 100084, 100083
84, 100001, 100002, 200002, 200001
85, 100002, 100003, 200003, 200002
86, 100003, 100004, 200004, 200003
87, 100004, 100005, 200005, 200004
88, 100005, 100006, 200006, 200005
89, 100006, 100007, 200007, 200006
90, 100007, 100008, 200008, 200007
91, 100008, 100009, 200009, 200008
92, 100009, 100010, 200010, 200009
93, 100010, 100011, 200011, 200010
94, 100011, 100012, 200012, 200011
95, 100012, 100013, 200013, 200012
96, 100013, 100014, 200014, 200013
97, 100014, 100015, 200015, 200014
98, 100015, 100016, 200016, 200015
99, 100016, 100017, 200017, 200016
100, 100017, 100018, 200018, 200017
101, 100018, 100019, 200019, 200018
102, 100019, 100020, 200020, 200019
103, 100020, 100021, 200021, 200020
104, 100021, 100022, 200022, 200021
105, 100022, 100023, 200023, 200022
106, 100023, 100024, 200024, 200023
107, 100024, 100025, 200025, 200024
108, 100025, 100026, 200026, 200025
109, 100026, 100027, 200027, 200026
110, 100027, 100028, 200028, 200027
111, 100028, 100029, 200029, 200028
112, 100029, 100030, 200030, 200029
113, 100030, 100031, 200031, 200030
114, 100031, 100032, 200032, 200031
115, 100032, 100033, 200033, 200032
116, 100033, 100034, 200034, 200033
117, 100034, 100035, 200035, 200034
118, 100035, 100036, 200036, 200035
119, 100036, 100037, 200037, 200036
120, 100037, 100038, 200038, 200037
121, 100038, 100039, 200039, 200038
122, 100039, 100040, 200040, 200039
123, 100040, 100041, 200041, 200040
124, 100041, 100042, 200042, 200041
125, 100042, 100043, 200043, 200042
126, 100043, 100044, 200044, 200043
127, 100044, 100045, 200045, 200044
128, 100045, 100046, 200046, 200045
129, 100046, 100047, 200047, 200046
130, 100047, 100048, 200048, 200047
131, 100048, 100049, 200049, 200048
132, 100049, 100050, 200050, 200049
133, 100050, 100051, 200051, 200050
134, 100051, 100052, 200052, 200051
135, 100052, 100053, 200053, 200052
136, 100053, 100054, 200054, 200053
137, 100054, 100055, 200055, 200054
138, 100055, 100056, 200056, 200055
139, 100056, 100057, 200057, 200056
140, 100057, 100058, 200058, 200057
141, 100058, 100059, 200059, 200058
142, 100059, 100060, 200060, 200059
143, 100060, 100061, 200061, 200060
144, 100061, 100062, 200062, 200061
145, 100062, 100063, 200063, 200062
146, 100063, 100064, 200064, 200063
147, 100064, 100065, 200065, 200064
148, 100065, 100066, 200066, 200065
149, 100066, 100067, 200067, 200066
150, 100067, 100068, 200068, 200067
151, 100068, 100069, 200069, 200068
152, 100069, 100070, 200070, 200069
153, 100070, 100071, 200071, 200070
154, 100071, 100072, 200072, 200071
155, 100072, 100073, 200073, 200072
156, 100073, 100074, 200074, 200073
157, 100074, 100075, 200075, 200074
158, 100075, 100076, 200076, 200075
159, 100076, 100077, 200077, 200076
160, 100077, 100078, 200078, 200077
161, 100078, 100079, 200079, 200078
162, 100079, 100080, 200080, 200079
163, 100080, 100081, 200081, 200080
164, 100081, 100082, 200082, 200081
165, 100082, 100083, 200083, 200082
166, 100083, 100084, 200084, 200083
167, 200001, 200002, 300002, 300001
168, 200002, 200003, 300003, 300002
169, 200003, 200004, 300004, 300003
170, 200004, 200005, 300005, 300004
171, 200005, 200006, 300006, 300005
172, 200006, 200007, 300007, 300006
173, 200007, 200008, 300008, 300007
174, 200008, 200009, 300009, 300008
175, 200009, 200010, 300010, 300009
176, 200010, 200011, 300011, 300010
177, 200011, 200012, 300012, 300011
178, 200012, 200013, 300013, 300012
179, 200013, 200014, 300014, 300013
180, 200014, 200015, 300015, 300014
181, 200015, 200016, 300016, 300015
182, 200016, 200017, 300017, 300016
183, 200017, 200018, 300018, 300017
184, 200018, 200019, 300019, 300018
185, 200019, 200020, 300020, 300019
186, 200020, 200021, 300021, 300020
187, 200021, 200022, 300022, 300021
188, 200022, 200023, 300023, 300022
189, 200023, 200024, 300024, 300023
190, 200024, 200025, 300025, 300024
191, 200025, 200026, 300026, 300025
192, 200026, 200027, 300027, 300026
193, 200027, 200028, 300028, 300027
194, 200028, 200029, 300029, 300028
195, 200029, 200030, 300030, 300029
196, 200030, 200031, 300031, 300030
197, 200031, 200032, 300032, 300031
198, 200032, 200033, 300033, 300032
199, 200033, 200034, 300034, 300033
200, 200034, 200035, 300035, 300034
201, 200035, 200036, 300036, 300035
202, 200036, 200037, 300037, 300036
203, 200037, 200038, 300038, 300037
204, 200038, 200039, 300039, 300038
205, 200039, 200040, 300040, 300039
206, 200040, 200041, 300041, 300040
207, 200041, 200042, 300042, 300041
208, 200042, 200043, 300043, 300042
209, 200043, 200044, 300044, 300043
210, 200044, 200045, 300045, 300044
211, 200045, 200046, 300046, 300045
212, 200046, 200047, 300047, 300046
213, 200047, 200048, 300048, 300047
214, 200048, 200049, 300049, 300048
215, 200049, 200050, 300050, 300049
216, 200050, 200051, 300051, 300050
217, 200051, 200052, 300052, 300051
218, 200052, 200053, 300053, 300052
219, 200053, 200054, 300054, 300053
220, 200054, 200055, 300055, 300054
221, 200055, 200056, 300056, 300055
222, 200056, 200057, 300057, 300056
223, 200057, 200058, 300058, 300057
224, 200058, 200059, 300059, 300058
225, 200059, 200060, 300060, 300059
226, 200060, 200061, 300061, 300060
227, 200061, 200062, 300062, 300061
228, 200062, 200063, 300063, 300062
229, 200063, 200064, 300064, 300063
230, 200064, 200065, 300065, 300064
231, 200065, 200066, 300066, 300065
232, 200066, 200067, 300067, 300066
233, 200067, 200068, 300068, 300067
234, 200068, 200069, 300069, 300068
235, 200069, 200070, 300070, 300069
236, 200070, 200071, 300071, 300070
237, 200071, 200072, 300072, 300071
238, 200072, 200073, 300073, 300072
239, 200073, 200074, 300074, 300073
240, 200074, 200075, 300075, 300074
241, 200075, 200076, 300076, 300075
242, 200076, 200077, 300077, 300076
243, 200077, 200078, 300078, 300077
244, 200078, 200079, 300079, 300078
245, 200079, 200080, 300080, 300079
246, 200080, 200081, 300081, 300080
247, 200081, 200082, 300082, 300081
248, 200082, 200083, 300083, 300082
249, 200083, 200084, 300084, 300083
250, 300001, 300002, 400002, 400001
251, 300002, 300003, 400003, 400002
252, 300003, 300004, 400004, 400003
253, 300004, 300005, 400005, 400004
254, 300005, 300006, 400006, 400005
255, 300006, 300007, 400007, 400006
256, 300007, 300008, 400008, 400007
257, 300008, 300009, 400009, 400008
258, 300009, 300010, 400010, 400009
259, 300010, 300011, 400011, 400010
260, 300011, 300012, 400012, 400011
261, 300012, 300013, 400013, 400012
262, 300013, 300014, 400014, 400013
263, 300014, 300015, 400015, 400014
264, 300015, 300016, 400016, 400015
265, 300016, 300017, 400017, 400016
266, 300017, 300018, 400018, 400017
267, 300018, 300019, 400019, 400018
268, 300019, 300020, 400020, 400019
269, 300020, 300021, 400021, 400020
270, 300021, 300022, 400022, 400021
271, 300022, 300023, 400023, 400022
272, 300023, 300024, 400024, 400023
273, 300024, 300025, 400025, 400024
274, 300025, 300026, 400026, 400025
275, 300026, 300027, 400027, 400026
276, 300027, 300028, 400028, 400027
277, 300028, 300029, 400029, 400028
278, 300029, 300030, 400030, 400029
279, 300030, 300031, 400031, 400030
280, 300031, 300032, 400032, 400031
281, 300032, 300033, 400033, 400032
282, 300033, 300034, 400034, 400033
283, 300034, 300035, 400035, 400034
284, 300035, 300036, 400036, 400035
285, 300036, 300037, 400037, 400036
286, 300037, 300038, 400038, 400037
287, 300038, 300039, 400039, 400038
288, 300039, 300040, 400040, 400039
289, 300040, 300041, 400041, 400040
290, 300041, 300042, 400042, 400041
291, 300042, 300043, 400043, 400042
292, 300043, 300044, 400044, 400043
293, 300044, 300045, 400045, 400044
294, 300045, 300046, 400046, 400045
295, 300046, 300047, 400047, 400046
296, 300047, 300048, 400048, 400047
297, 300048, 300049, 400049, 400048
298, 300049, 300050, 400050, 400049
299, 300050, 300051, 400051, 400050
300, 300051, 300052, 400052, 400051
301, 300052, 300053, 400053, 400052
302, 300053, 300054, 400054, 400053
303, 300054, 300055, 400055, 400054
304, 300055, 300056, 400056, 400055
305, 300056, 300057, 400057, 400056
306, 300057, 300058, 400058, 400057
307, 300058, 300059, 400059, 400058
308, 300059, 300060, 400060, 400059
309, 300060, 300061, 400061, 400060
310, 300061, 300062, 400062, 400061
311, 300062, 300063, 400063, 400062
312, 300063, 300064, 400064, 400063
313, 300064, 300065, 400065, 400064
314, 300065, 300066, 400066, 400065
315, 300066, 300067, 400067, 400066
316, 300067, 300068, 400068, 400067
317, 300068, 300069, 400069, 400068
318, 300069, 300070, 400070, 400069
319, 300070, 300071, 400071, 400070
320, 300071, 300072, 400072, 400071
321, 300072, 300073, 400073, 400072
322, 300073, 300074, 400074, 400073
323, 300074, 300075, 400075, 400074
324, 300075, 300076, 400076, 400075
325, 300076, 300077, 400077, 400076
326, 300077, 300078, 400078, 400077
327, 300078, 300079, 400079, 400078
328, 300079, 300080, 400080, 400079
329, 300080, 300081, 400081, 400080
330, 300081, 300082, 400082, 400081
331, 300082, 300083, 400083, 400082
332, 300083, 300084, 400084, 400083
333, 400001, 400002, 500002, 500001
334, 400002, 400003, 500003, 500002
335, 400003, 400004, 500004, 500003
336, 400004, 400005, 500005, 500004
337, 400005, 400006, 500006, 500005
338, 400006, 400007, 500007, 500006
339, 400007, 400008, 500008, 500007
340, 400008, 400009, 500009, 500008
341, 400009, 400010, 500010, 500009
342, 400010, 400011, 500011, 500010
343, 400011, 400012, 500012, 500011
344, 400012, 400013, 500013, 500012
345, 400013, 400014, 500014, 500013
346, 400014, 400015, 500015, 500014
347, 400015, 400016, 500016, 500015
348, 400016, 400017, 500017, 500016
349, 400017, 400018, 500018, 500017
350, 400018, 400019, 500019, 500018
351, 400019, 400020, 500020, 500019
352, 400020, 400021, 500021, 500020
353, 400021, 400022, 500022, 500021
354, 400022, 400023, 500023, 500022
355, 400023, 400024, 500024, 500023
356, 400024, 400025, 500025, 500024
357, 400025, 400026, 500026, 500025
358, 400026, 400027, 500027, 500026
359, 400027, 400028, 500028, 500027
360, 400028, 400029, 500029, 500028
361, 400029, 400030, 500030, 500029
362, 400030, 400031, 500031, 500030
363, 400031, 400032, 500032, 500031
364, 400032, 400033, 500033, 500032
365, 400033, 400034, 500034, 500033
366, 400034, 400035, 500035, 500034
367, 400035, 400036, 500036, 500035
368, 400036, 400037, 500037, 500036
369, 400037, 400038, 500038, 500037
370, 400038, 400039, 500039, 500038
371, 400039, 400040, 500040, 500039
372, 400040, 400041, 500041, 500040
373, 400041, 400042, 500042, 500041
374, 400042, 400043, 500043, 500042
375, 400043, 400044, 500044, 500043
376, 400044, 400045, 500045, 500044
377, 400045, 400046, 500046, 500045
378, 400046, 400047, 500047, 500046
379, 400047, 400048, 500048, 500047
380, 400048, 400049, 500049, 500048
381, 400049, 400050, 500050, 500049
382, 400050, 400051, 500051, 500050
383, 400051, 400052, 500052, 500051
384, 400052, 400053, 500053, 500052
385, 400053, 400054, 500054, 500053
386, 400054, 400055, 500055, 500054
387, 400055, 400056, 500056, 500055
388, 400056, 400057, 500057, 500056
389, 400057, 400058, 500058, 500057
390, 400058, 400059, 500059, 500058
391, 400059, 400060, 500060, 500059
392, 400060, 400061, 500061, 500060
393, 400061, 400062, 500062, 500061
394, 400062, 400063, 500063, 500062
395, 400063, 400064, 500064, 500063
396, 400064, 400065, 500065, 500064
397, 400065, 400066, 500066, 500065
398, 400066, 400067, 500067, 500066
399, 400067, 400068, 500068, 500067
400, 400068, 400069, 500069, 500068
401, 400069, 400070, 500070, 500069
402, 400070, 400071, 500071, 500070
403, 400071, 400072, 500072, 500071
404, 400072, 400073, 500073, 500072
405, 400073, 400074, 500074, 500073
406, 400074, 400075, 500075, 500074
407, 400075, 400076, 500076, 500075
408, 400076, 400077, 500077, 500076
409, 400077, 400078, 500078, 500077
410, 400078, 400079, 500079, 500078
411, 400079, 400080, 500080, 500079
412, 400080, 400081, 500081, 500080
413, 400081, 400082, 500082, 500081
414, 400082, 400083, 500083, 500082
415, 400083, 400084, 500084, 500083
416, 500001, 500002, 600002, 600001
417, 500002, 500003, 600003, 600002
418, 500003, 500004, 600004, 600003
419, 500004, 500005, 600005, 600004
420, 500005, 500006, 600006, 600005
421, 500006, 500007, 600007, 600006
422, 500007, 500008, 600008, 600007
423, 500008, 500009, 600009, 600008
424, 500009, 500010, 600010, 600009
425, 500010, 500011, 600011, 600010
426, 500011, 500012, 600012, 600011
427, 500012, 500013, 600013, 600012
428, 500013, 500014, 600014, 600013
429, 500014, 500015, 600015, 600014
430, 500015, 500016, 600016, 600015
431, 500016, 500017, 600017, 600016
432, 500017, 500018, 600018, 600017
433, 500018, 500019, 600019, 600018
434, 500019, 500020, 600020, 600019
435, 500020, 500021, 600021, 600020
436, 500021, 500022, 600022, 600021
437, 500022, 500023, 600023, 600022
438, 500023, 500024, 600024, 600023
439, 500024, 500025, 600025, 600024
440, 500025, 500026, 600026, 600025
441, 500026, 500027, 600027, 600026
442, 500027, 500028, 600028, 600027
443, 500028, 500029, 600029, 600028
444, 500029, 500030, 600030, 600029
445, 500030, 500031, 600031, 600030
446, 500031, 500032, 600032, 600031
447, 500032, 500033, 600033, 600032
448, 500033, 500034, 600034, 600033
449, 500034, 500035, 600035, 600034
450, 500035, 500036, 600036, 600035
451, 500036, 500037, 600037, 600036
452, 500037, 500038, 600038, 600037
453, 500038, 500039, 600039, 600038
454, 500039, 500040, 600040, 600039
455, 500040, 500041, 600041, 600040
456, 500041, 500042, 600042, 600041
457, 500042, 500043, 600043, 600042
458, 500043, 500044, 600044, 600043
459, 500044, 500045, 600045, 600044
460, 500045, 500046, 600046, 600045
461, 500046, 500047, 600047, 600046
462, 500047, 500048, 600048, 600047
463, 500048, 500049, 600049, 600048
464, 500049, 500050, 600050, 600049
465, 500050, 500051, 600051, 600050
466, 500051, 500052, 600052, 600051
467, 500052, 500053, 600053, 600052
468, 500053, 500054, 600054, 600053
469, 500054, 500055, 600055, 600054
470, 500055, 500056, 600056, 600055
471, 500056, 500057, 600057, 600056
472, 500057, 500058, 600058, 600057
473, 500058, 500059, 600059, 600058
474, 500059, 500060, 600060, 600059
475, 500060, 500061, 600061, 600060
476, 500061, 500062, 600062, 600061
477, 500062, 500063, 600063, 600062
478, 500063, 500064, 600064, 600063
479, 500064, 500065, 600065, 600064
480, 500065, 500066, 600066, 600065
481, 500066, 500067, 600067, 600066
482, 500067, 500068, 600068, 600067
483, 500068, 500069, 600069, 600068
484, 500069, 500070, 600070, 600069
485, 500070, 500071, 600071, 600070
486, 500071, 500072, 600072, 600071
487, 500072, 500073, 600073, 600072
488, 500073, 500074, 600074, 600073
489, 500074, 500075, 600075, 600074
490, 500075, 500076, 600076, 600075
491, 500076, 500077, 600077, 600076
492, 500077, 500078, 600078, 600077
493, 500078, 500079, 600079, 600078
494, 500079, 500080, 600080, 600079
495, 500080, 500081, 600081, 600080
496, 500081, 500082, 600082, 600081
497, 500082, 500083, 600083, 600082
498, 500083, 500084, 600084, 600083
499, 600001, 600002, 700002, 700001
500, 600002, 600003, 700003, 700002
501, 600003, 600004, 700004, 700003
502, 600004, 600005, 700005, 700004
503, 600005, 600006, 700006, 700005
504, 600006, 600007, 700007, 700006
505, 600007, 600008, 700008, 700007
506, 600008, 600009, 700009, 700008
507, 600009, 600010, 700010, 700009
508, 600010, 600011, 700011, 700010
509, 600011, 600012, 700012, 700011
510, 600012, 600013, 700013, 700012
511, 600013, 600014, 700014, 700013
512, 600014, 600015, 700015, 700014
513, 600015, 600016, 700016, 700015
514, 600016, 600017, 700017, 700016
515, 600017, 600018, 700018, 700017
516, 600018, 600019, 700019, 700018
517, 600019, 600020, 700020, 700019
518, 600020, 600021, 700021, 700020
519, 600021, 600022, 700022, 700021
520, 600022, 600023, 700023, 700022
521, 600023, 600024, 700024, 700023
522, 600024, 600025, 700025, 700024
523, 600025, 600026, 700026, 700025
524, 600026, 600027, 700027, 700026
525, 600027, 600028, 700028, 700027
526, 600028, 600029, 700029, 700028
527, 600029, 600030, 700030, 700029
528, 600030, 600031, 700031, 700030
529, 600031, 600032, 700032, 700031
530, 600032, 600033, 700033, 700032
531, 600033, 600034, 700034, 700033
532, 600034, 600035, 700035, 700034
533, 600035, 600036, 700036, 700035
534, 600036, 600037, 700037, 700036
535, 600037, 600038, 700038, 700037
536, 600038, 600039, 700039, 700038
537, 600039, 600040, 700040, 700039
538, 600040, 600041, 700041, 700040
539, 600041, 600042, 700042, 700041
540, 600042, 600043, 700043, 700042
541, 600043, 600044, 700044, 700043
542, 600044, 600045, 700045, 700044
543, 600045, 600046, 700046, 700045
544, 600046, 600047, 700047, 700046
545, 600047, 600048, 700048, 700047
546, 600048, 600049, 700049, 700048
547, 600049, 600050, 700050, 700049
548, 600050, 600051, 700051, 700050
549, 600051, 600052, 700052, 700051
550, 600052, 600053, 700053, 700052
551, 600053, 600054, 700054, 700053
552, 600054, 600055, 700055, 700054
553, 600055, 600056, 700056, 700055
554, 600056, 600057, 700057, 700056
555, 600057, 600058, 700058, 700057
556, 600058, 600059, 700059, 700058
557, 600059, 600060, 700060, 700059
558, 600060, 600061, 700061, 700060
559, 600061, 600062, 700062, 700061
560, 600062, 600063, 700063, 700062
561, 600063, 600064, 700064, 700063
562, 600064, 600065, 700065, 700064
563, 600065, 600066, 700066, 700065
564, 600066, 600067, 700067, 700066
565, 600067, 600068, 700068, 700067
566, 600068, 600069, 700069, 700068
567, 600069, 600070, 700070, 700069
568, 600070, 600071, 700071, 700070
569, 600071, 600072, 700072, 700071
570, 600072, 600073, 700073, 700072
571, 600073, 600074, 700074, 700073
572, 600074, 600075, 700075, 700074
573, 600075, 600076, 700076, 700075
574, 600076, 600077, 700077, 700076
575, 600077, 600078, 700078, 700077
576, 600078, 600079, 700079, 700078
577, 600079, 600080, 700080, 700079
578, 600080, 600081, 700081, 700080
579, 600081, 600082, 700082, 700081
580, 600082, 600083, 700083, 700082
581, 600083, 600084, 700084, 700083
582, 700001, 700002, 800002, 800001
583, 700002, 700003, 800003, 800002
584, 700003, 700004, 800004, 800003
585, 700004, 700005, 800005, 800004
586, 700005, 700006, 800006, 800005
587, 700006, 700007, 800007, 800006
588, 700007, 700008, 800008, 800007
589, 700008, 700009, 800009, 800008
590, 700009, 700010, 800010, 800009
591, 700010, 700011, 800011, 800010
592, 700011, 700012, 800012, 800011
593, 700012, 700013, 800013, 800012
594, 700013, 700014, 800014, 800013
595, 700014, 700015, 800015, 800014
596, 700015, 700016, 800016, 800015
597, 700016, 700017, 800017, 800016
598, 700017, 700018, 800018, 800017
599, 700018, 700019, 800019, 800018
600, 700019, 700020, 800020, 800019
601, 700020, 700021, 800021, 800020
602, 700021, 700022, 800022, 800021
603, 700022, 700023, 800023, 800022
604, 700023, 700024, 800024, 800023
605, 700024, 700025, 800025, 800024
606, 700025, 700026, 800026, 800025
607, 700026, 700027, 800027, 800026
608, 700027, 700028, 800028, 800027
609, 700028, 700029, 800029, 800028
610, 700029, 700030, 800030, 800029
611, 700030, 700031, 800031, 800030
612, 700031, 700032, 800032, 800031
613, 700032, 700033, 800033, 800032
614, 700033, 700034, 800034, 800033
615, 700034, 700035, 800035, 800034
616, 700035, 700036, 800036, 800035
617, 700036, 700037, 800037, 800036
618, 700037, 700038, 800038, 800037
619, 700038, 700039, 800039, 800038
620, 700039, 700040, 800040, 800039
621, 700040, 700041, 800041, 800040
622, 700041, 700042, 800042, 800041
623, 700042, 700043, 800043, 800042
624, 700043, 700044, 800044, 800043
625, 700044, 700045, 800045, 800044
626, 700045, 700046, 800046, 800045
627, 700046, 700047, 800047, 800046
628, 700047, 700048, 800048, 800047
629, 700048, 700049, 800049, 800048
630, 700049, 700050, 800050, 800049
631, 700050, 700051, 800051, 800050
632, 700051, 700052, 800052, 800051
633, 700052, 700053, 800053, 800052
634, 700053, 700054, 800054, 800053
635, 700054, 700055, 800055, 800054
636, 700055, 700056, 800056, 800055
637, 700056, 700057, 800057, 800056
638, 700057, 700058, 800058, 800057
639, 700058, 700059, 800059, 800058
640, 700059, 700060, 800060, 800059
641, 700060, 700061, 800061, 800060
642, 700061, 700062, 800062, 800061
643, 700062, 700063, 800063, 800062
644, 700063, 700064, 800064, 800063
645, 700064, 700065, 800065, 800064
646, 700065, 700066, 800066, 800065
647, 700066, 700067, 800067, 800066
648, 700067, 700068, 800068, 800067
649, 700068, 700069, 800069, 800068
650, 700069, 700070, 800070, 800069
651, 700070, 700071, 800071, 800070
652, 700071, 700072, 800072, 800071
653, 700072, 700073, 800073, 800072
654, 700073, 700074, 800074, 800073
655, 700074, 700075, 800075, 800074
656, 700075, 700076, 800076, 800075
657, 700076, 700077, 800077, 800076
658, 700077, 700078, 800078, 800077
659, 700078, 700079, 800079, 800078
660, 700079, 700080, 800080, 800079
661, 700080, 700081, 800081, 800080
662, 700081, 700082, 800082, 800081
663, 700082, 700083, 800083, 800082
664, 700083, 700084, 800084, 800083
665, 800001, 800002, 900002, 900001
666, 800002, 800003, 900003, 900002
667, 800003, 800004, 900004, 900003
668, 800004, 800005, 900005, 900004
669, 800005, 800006, 900006, 900005
670, 800006, 800007, 900007, 900006
671, 800007, 800008, 900008, 900007
672, 800008, 800009, 900009, 900008
673, 800009, 800010, 900010, 900009
674, 800010, 800011, 900011, 900010
675, 800011, 800012, 900012, 900011
676, 800012, 800013, 900013, 900012
677, 800013, 800014, 900014, 900013
678, 800014, 800015, 900015, 900014
679, 800015, 800016, 900016, 900015
680, 800016, 800017, 900017, 900016
681, 800017, 800018, 900018, 900017
682, 800018, 800019, 900019, 900018
683, 800019, 800020, 900020, 900019
684, 800020, 800021, 900021, 900020
685, 800021, 800022, 900022, 900021
686, 800022, 800023, 900023, 900022
687, 800023, 800024, 900024, 900023
688, 800024, 800025, 900025, 900024
689, 800025, 800026, 900026, 900025
690, 800026, 800027, 900027, 900026
691, 800027, 800028, 900028, 900027
692, 800028, 800029, 900029, 900028
693, 800029, 800030, 900030, 900029
694, 800030, 800031, 900031, 900030
695, 800031, 800032, 900032, 900031
696, 800032, 800033, 900033, 900032
697, 800033, 800034, 900034, 900033
698, 800034, 800035, 900035, 900034
699, 800035, 800036, 900036, 900035
700, 800036, 800037, 900037, 900036
701, 800037, 800038, 900038, 900037
702, 800038, 800039, 900039, 900038
703, 800039, 800040, 900040, 900039
704, 800040, 800041, 900041, 900040
705, 800041, 800042, 900042, 900041
706, 800042, 800043, 900043, 900042
707, 800043, 800044, 900044, 900043
708, 800044, 800045, 900045, 900044
709, 800045, 800046, 900046, 900045
710, 800046, 800047, 900047, 900046
711, 800047, 800048, 900048, 900047
712, 800048, 800049, 900049, 900048
713, 800049, 800050, 900050, 900049
714, 800050, 800051, 900051, 900050
715, 800051, 800052, 900052, 900051
716, 800052, 800053, 900053, 900052
717, 800053, 800054, 900054, 900053
718, 800054, 800055, 900055, 900054
719, 800055, 800056, 900056, 900055
720, 800056, 800057, 900057, 900056
721, 800057, 800058, 900058, 900057
722, 800058, 800059, 900059, 900058
723, 800059, 800060, 900060, 900059
724, 800060, 800061, 900061, 900060
725, 800061, 800062, 900062, 900061
726, 800062, 800063, 900063, 900062
727, 800063, 800064, 900064, 900063
728, 800064, 800065, 900065, 900064
729, 800065, 800066, 900066, 900065
730, 800066, 800067, 900067, 900066
731, 800067, 800068, 900068, 900067
732, 800068, 800069, 900069, 900068
733, 800069, 800070, 900070, 900069
734, 800070, 800071, 900071, 900070
735, 800071, 800072, 900072, 900071
736, 800072, 800073, 900073, 900072
737, 800073, 800074, 900074, 900073
738, 800074, 800075, 900075, 900074
739, 800075, 800076, 900076, 900075
740, 800076, 800077, 900077, 900076
741, 800077, 800078, 900078, 900077
742, 800078, 800079, 900079, 900078
743, 800079, 800080, 900080, 900079
744, 800080, 800081, 900081, 900080
745, 800081, 800082, 900082, 900081
746, 800082, 800083, 900083, 900082
747, 800083, 800084, 900084, 900083
748, 900001, 900002, 1000002, 1000001
749, 900002, 900003, 1000003, 1000002
750, 900003, 900004, 1000004, 1000003
751, 900004, 900005, 1000005, 1000004
752, 900005, 900006, 1000006, 1000005
753, 900006, 900007, 1000007, 1000006
754, 900007, 900008, 1000008, 1000007
755, 900008, 900009, 1000009, 1000008
756, 900009, 900010, 1000010, 1000009
757, 900010, 900011, 1000011, 1000010
758, 900011, 900012, 1000012, 1000011
759, 900012, 900013, 1000013, 1000012
760, 900013, 900014, 1000014, 1000013
761, 900014, 900015, 1000015, 1000014
762, 900015, 900016, 1000016, 1000015
763, 900016, 900017, 1000017, 1000016
764, 900017, 900018, 1000018, 1000017
765, 900018, 900019, 1000019, 1000018
766, 900019, 900020, 1000020, 1000019
767, 900020, 900021, 1000021, 1000020
768, 900021, 900022, 1000022, 1000021
769, 900022, 900023, 1000023, 1000022
770, 900023, 900024, 1000024, 1000023
771, 900024, 900025, 1000025, 1000024
772, 900025, 900026, 1000026, 1000025
773, 900026, 900027, 1000027, 1000026
774, 900027, 900028, 1000028, 1000027
775, 900028, 900029, 1000029, 1000028
776, 900029, 900030, 1000030, 1000029
777, 900030, 900031, 1000031, 1000030
778, 900031, 900032, 1000032, 1000031
779, 900032, 900033, 1000033, 1000032
780, 900033, 900034, 1000034, 1000033
781, 900034, 900035, 1000035, 1000034
782, 900035, 900036, 1000036, 1000035
783, 900036, 900037, 1000037, 1000036
784, 900037, 900038, 1000038, 1000037
785, 900038, 900039, 1000039, 1000038
786, 900039, 900040, 1000040, 1000039
787, 900040, 900041, 1000041, 1000040
788, 900041, 900042, 1000042, 1000041
789, 900042, 900043, 1000043, 1000042
790, 900043, 900044, 1000044, 1000043
791, 900044, 900045, 1000045, 1000044
792, 900045, 900046, 1000046, 1000045
793, 900046, 900047, 1000047, 1000046
794, 900047, 900048, 1000048, 1000047
795, 900048, 900049, 1000049, 1000048
796, 900049, 900050, 1000050, 1000049
797, 900050, 900051, 1000051, 1000050
798, 900051, 900052, 1000052, 1000051
799, 900052, 900053, 1000053, 1000052
800, 900053, 900054, 1000054, 1000053
801, 900054, 900055, 1000055, 1000054
802, 900055, 900056, 1000056, 1000055
803, 900056, 900057, 1000057, 1000056
804, 900057, 900058, 1000058, 1000057
805, 900058, 900059, 1000059, 1000058
806, 900059, 900060, 1000060, 1000059
807, 900060, 900061, 1000061, 1000060
808, 900061, 900062, 1000062, 1000061
809, 900062, 900063, 1000063, 1000062
810, 900063, 900064, 1000064, 1000063
811, 900064, 900065, 1000065, 1000064
812, 900065, 900066, 1000066, 1000065
813, 900066, 900067, 1000067, 1000066
814, 900067, 900068, 1000068, 1000067
815, 900068, 900069, 1000069, 1000068
816, 900069, 900070, 1000070, 1000069
817, 900070, 900071, 1000071, 1000070
818, 900071, 900072, 1000072, 1000071
819, 900072, 900073, 1000073, 1000072
820, 900073, 900074, 1000074, 1000073
821, 900074, 900075, 1000075, 1000074
822, 900075, 900076, 1000076, 1000075
823, 900076, 900077, 1000077, 1000076
824, 900077, 900078, 1000078, 1000077
825, 900078, 900079, 1000079, 1000078
826, 900079, 900080, 1000080, 1000079
827, 900080, 900081, 1000081, 1000080
828, 900081, 900082, 1000082, 1000081
829, 900082, 900083, 1000083, 1000082
830, 900083, 900084, 1000084, 1000083
831, 1000001, 1000002, 1100002, 1100001
832, 1000002, 1000003, 1100003, 1100002
833, 1000003, 1000004, 1100004, 1100003
834, 1000004, 1000005, 1100005, 1100004
835, 1000005, 1000006, 1100006, 1100005
836, 1000006, 1000007, 1100007, 1100006
837, 1000007, 1000008, 1100008, 1100007
838, 1000008, 1000009, 1100009, 1100008
839, 1000009, 1000010, 1100010, 1100009
840, 1000010, 1000011, 1100011, 1100010
841, 1000011, 1000012, 1100012, 1100011
842, 1000012, 1000013, 1100013, 1100012
843, 1000013, 1000014, 1100014, 1100013
844, 1000014, 1000015, 1100015, 1100014
845, 1000015, 1000016, 1100016, 1100015
846, 1000016, 1000017, 1100017, 1100016
847, 1000017, 1000018, 1100018, 1100017
848, 1000018, 1000019, 1100019, 1100018
849, 1000019, 1000020, 1100020, 1100019
850, 1000020, 1000021, 1100021, 1100020
851, 1000021, 1000022, 1100022, 1100021
852, 1000022, 1000023, 1100023, 1100022
853, 1000023, 1000024, 1100024, 1100023
854, 1000024, 1000025, 1100025, 1100024
855, 1000025, 1000026, 1100026, 1100025
856, 1000026, 1000027, 1100027, 1100026
857, 1000027, 1000028, 1100028, 1100027
858, 1000028, 1000029, 1100029, 1100028
859, 1000029, 1000030, 1100030, 1100029
860, 1000030, 1000031, 1100031, 1100030
861, 1000031, 1000032, 1100032, 1100031
862, 1000032, 1000033, 1100033, 1100032
863, 1000033, 1000034, 1100034, 1100033
864, 1000034, 1000035, 1100035, 1100034
865, 1000035, 1000036, 1100036, 1100035
866, 1000036, 1000037, 1100037, 1100036
867, 1000037, 1000038, 1100038, 1100037
868, 1000038, 1000039, 1100039, 1100038
869, 1000039, 1000040, 1100040, 1100039
870, 1000040, 1000041, 1100041, 1100040
871, 1000041, 1000042, 1100042, 1100041
872, 1000042, 1000043, 1100043, 1100042
873, 1000043, 1000044, 1100044, 1100043
874, 1000044, 1000045, 1100045, 1100044
875, 1000045, 1000046, 1100046, 1100045
876, 1000046, 1000047, 1100047, 1100046
877, 1000047, 1000048, 1100048, 1100047
878, 1000048, 1000049, 1100049, 1100048
879, 1000049, 1000050, 1100050, 1100049
880, 1000050, 1000051, 1100051, 1100050
881, 1000051, 1000052, 1100052, 1100051
882, 1000052, 1000053, 1100053, 1100052
883, 1000053, 1000054, 1100054, 1100053
884, 1000054, 1000055, 1100055, 1100054
885, 1000055, 1000056, 1100056, 1100055
886, 1000056, 1000057, 1100057, 1100056
887, 1000057, 1000058, 1100058, 1100057
888, 1000058, 1000059, 1100059, 1100058
889, 1000059, 1000060, 1100060, 1100059
890, 1000060, 1000061, 1100061, 1100060
891, 1000061, 1000062, 1100062, 1100061
892, 1000062, 1000063, 1100063, 1100062
893, 1000063, 1000064, 1100064, 1100063
894, 1000064, 1000065, 1100065, 1100064
895, 1000065, 1000066, 1100066, 1100065
896, 1000066, 1000067, 1100067, 1100066
897, 1000067, 1000068, 1100068, 1100067
898, 1000068, 1000069, 1100069, 1100068
899, 1000069, 1000070, 1100070, 1100069
900, 1000070, 1000071, 1100071, 1100070
901, 1000071, 1000072, 1100072, 1100071
902, 1000072, 1000073, 1100073, 1100072
903, 1000073, 1000074, 1100074, 1100073
904, 1000074, 1000075, 1100075, 1100074
905, 1000075, 1000076, 1100076, 1100075
906, 1000076, 1000077, 1100077, 1100076
907, 1000077, 1000078, 1100078, 1100077
908, 1000078, 1000079, 1100079, 1100078
909, 1000079, 1000080, 1100080, 1100079
910, 1000080, 1000081, 1100081, 1100080
911, 1000081, 1000082, 1100082, 1100081
912, 1000082, 1000083, 1100083, 1100082
913, 1000083, 1000084, 1100084, 1100083
914, 1100001, 1100002, 1200002, 1200001
915, 1100002, 1100003, 1200003, 1200002
916, 1100003, 1100004, 1200004, 1200003
917, 1100004, 1100005, 1200005, 1200004
918, 1100005, 1100006, 1200006, 1200005
919, 1100006, 1100007, 1200007, 1200006
920, 1100007, 1100008, 1200008, 1200007
921, 1100008, 1100009, 1200009, 1200008
922, 1100009, 1100010, 1200010, 1200009
923, 1100010, 1100011, 1200011, 1200010
924, 1100011, 1100012, 1200012, 1200011
925, 1100012, 1100013, 1200013, 1200012
926, 1100013, 1100014, 1200014, 1200013
927, 1100014, 1100015, 1200015, 1200014
928, 1100015, 1100016, 1200016, 1200015
929, 1100016, 1100017, 1200017, 1200016
930, 1100017, 1100018, 1200018, 1200017
931, 1100018, 1100019, 1200019, 1200018
932, 1100019, 1100020, 1200020, 1200019
933, 1100020, 1100021, 1200021, 1200020
934, 1100021, 1100022, 1200022, 1200021
935, 1100022, 1100023, 1200023, 1200022
936, 1100023, 1100024, 1200024, 1200023
937, 1100024, 1100025, 1200025, 1200024
938, 1100025, 1100026, 1200026, 1200025
939, 1100026, 1100027, 1200027, 1200026
940, 1100027, 1100028, 1200028, 1200027
941, 1100028, 1100029, 1200029, 1200028
942, 1100029, 1100030, 1200030, 1200029
943, 1100030, 1100031, 1200031, 1200030
944, 1100031, 1100032, 1200032, 1200031
945, 1100032, 1100033, 1200033, 1200032
946, 1100033, 1100034, 1200034, 1200033
947, 1100034, 1100035, 1200035, 1200034
948, 1100035, 1100036, 1200036, 1200035
949, 1100036, 1100037, 1200037, 1200036
950, 1100037, 1100038, 1200038, 1200037
951, 1100038, 1100039, 1200039, 1200038
952, 1100039, 1100040, 1200040, 1200039
953, 1100040, 1100041, 1200041, 1200040
954, 1100041, 1100042, 1200042, 1200041
955, 1100042, 1100043, 1200043, 1200042
956, 1100043, 1100044, 1200044, 1200043
957, 1100044, 1100045, 1200045, 1200044
958, 1100045, 1100046, 1200046, 1200045
959, 1100046, 1100047, 1200047, 1200046
960, 1100047, 1100048, 1200048, 1200047
961, 1100048, 1100049, 1200049, 1200048
962, 1100049, 1100050, 1200050, 1200049
963, 1100050, 1100051, 1200051, 1200050
964, 1100051, 1100052, 1200052, 1200051
965, 1100052, 1100053, 1200053, 1200052
966, 1100053, 1100054, 1200054, 1200053
967, 1100054, 1100055, 1200055, 1200054
968, 1100055, 1100056, 1200056, 1200055
969, 1100056, 1100057, 1200057, 1200056
970, 1100057, 1100058, 1200058, 1200057
971, 1100058, 1100059, 1200059, 1200058
972, 1100059, 1100060, 1200060, 1200059
973, 1100060, 1100061, 1200061, 1200060
974, 1100061, 1100062, 1200062, 1200061
975, 1100062, 1100063, 1200063, 1200062
976, 1100063, 1100064, 1200064, 1200063
977, 1100064, 1100065, 1200065, 1200064
978, 1100065, 1100066, 1200066, 1200065
979, 1100066, 1100067, 1200067, 1200066
980, 1100067, 1100068, 1200068, 1200067
981, 1100068, 1100069, 1200069, 1200068
982, 1100069, 1100070, 1200070, 1200069
983, 1100070, 1100071, 1200071, 1200070
984, 1100071, 1100072, 1200072, 1200071
985, 1100072, 1100073, 1200073, 1200072
986, 1100073, 1100074, 1200074, 1200073
987, 1100074, 1100075, 1200075, 1200074
988, 1100075, 1100076, 1200076, 1200075
989, 1100076, 1100077, 1200077, 1200076
990, 1100077, 1100078, 1200078, 1200077
991, 1100078, 1100079, 1200079, 1200078
992, 1100079, 1100080, 1200080, 1200079
993, 1100080, 1100081, 1200081, 1200080
994, 1100081, 1100082, 1200082, 1200081
995, 1100082, 1100083, 1200083, 1200082
996, 1100083, 1100084, 1200084, 1200083
997, 1200001, 1200002, 1300002, 1300001
998, 1200002, 1200003, 1300003, 1300002
999, 1200003, 1200004, 1300004, 1300003
1000, 1200004, 1200005, 1300005, 1300004
1001, 1200005, 1200006, 1300006, 1300005
1002, 1200006, 1200007, 1300007, 1300006
1003, 1200007, 1200008, 1300008, 1300007
1004, 1200008, 1200009, 1300009, 1300008
1005, 1200009, 1200010, 1300010, 1300009
1006, 1200010, 1200011, 1300011, 1300010
1007, 1200011, 1200012, 1300012, 1300011
1008, 1200012, 1200013, 1300013, 1300012
1009, 1200013, 1200014, 1300014, 1300013
1010, 1200014, 1200015, 1300015, 1300014
1011, 1200015, 1200016, 1300016, 1300015
1012, 1200016, 1200017, 1300017, 1300016
1013, 1200017, 1200018, 1300018, 1300017
1014, 1200018, 1200019, 1300019, 1300018
1015, 1200019, 1200020, 1300020, 1300019
1016, 1200020, 1200021, 1300021, 1300020
1017, 1200021, 1200022, 1300022, 1300021
1018, 1200022, 1200023, 1300023, 1300022
1019, 1200023, 1200024, 1300024, 1300023
1020, 1200024, 1200025, 1300025, 1300024
1021, 1200025, 1200026, 1300026, 1300025
1022, 1200026, 1200027, 1300027, 1300026
1023, 1200027, 1200028, 1300028, 1300027
1024, 1200028, 1200029, 1300029, 1300028
1025, 1200029, 1200030, 1300030, 1300029
1026, 1200030, 1200031, 1300031, 1300030
1027, 1200031, 1200032, 1300032, 1300031
1028, 1200032, 1200033, 1300033, 1300032
1029, 1200033, 1200034, 1300034, 1300033
1030, 1200034, 1200035, 1300035, 1300034
1031, 1200035, 1200036, 1300036, 1300035
1032, 1200036, 1200037, 1300037, 1300036
1033, 1200037, 1200038, 1300038, 1300037
1034, 1200038, 1200039, 1300039, 1300038
1035, 1200039, 1200040, 1300040, 1300039
1036, 1200040, 1200041, 1300041, 1300040
1037, 1200041, 1200042, 1300042, 1300041
1038, 1200042, 1200043, 1300043, 1300042
1039, 1200043, 1200044, 1300044, 1300043
1040, 1200044, 1200045, 1300045, 1300044
1041, 1200045, 1200046, 1300046, 1300045
1042, 1200046, 1200047, 1300047, 1300046
1043, 1200047, 1200048, 1300048, 1300047
1044, 1200048, 1200049, 1300049, 1300048
1045, 1200049, 1200050, 1300050, 1300049
1046, 1200050, 1200051, 1300051, 1300050
1047, 1200051, 1200052, 1300052, 1300051
1048, 1200052, 1200053, 1300053, 1300052
1049, 1200053, 1200054, 1300054, 1300053
1050, 1200054, 1200055, 1300055, 1300054
1051, 1200055, 1200056, 1300056, 1300055
1052, 1200056, 1200057, 1300057, 1300056
1053, 1200057, 1200058, 1300058, 1300057
1054, 1200058, 1200059, 1300059, 1300058
1055, 1200059, 1200060, 1300060, 1300059
1056, 1200060, 1200061, 1300061, 1300060
1057, 1200061, 1200062, 1300062, 1300061
1058, 1200062, 1200063, 1300063, 1300062
1059, 1200063, 1200064, 1300064, 1300063
1060, 1200064, 1200065, 1300065, 1300064
1061, 1200065, 1200066, 1300066, 1300065
1062, 1200066, 1200067, 1300067, 1300066
1063, 1200067, 1200068, 1300068, 1300067
1064, 1200068, 1200069, 1300069, 1300068
1065, 1200069, 1200070, 1300070, 1300069
1066, 1200070, 1200071, 1300071, 1300070
1067, 1200071, 1200072, 1300072, 1300071
1068, 1200072, 1200073, 1300073, 1300072
1069, 1200073, 1200074, 1300074, 1300073
1070, 1200074, 1200075, 1300075, 1300074
1071, 1200075, 1200076, 1300076, 1300075
1072, 1200076, 1200077, 1300077, 1300076
1073, 1200077, 1200078, 1300078, 1300077
1074, 1200078, 1200079, 1300079, 1300078
1075, 1200079, 1200080, 1300080, 1300079
1076, 1200080, 1200081, 1300081, 1300080
1077, 1200081, 1200082, 1300082, 1300081
1078, 1200082, 1200083, 1300083, 1300082
1079, 1200083, 1200084, 1300084, 1300083
1080, 1300001, 1300002, 1400002, 1400001
1081, 1300002, 1300003, 1400003, 1400002
1082, 1300003, 1300004, 1400004, 1400003
1083, 1300004, 1300005, 1400005, 1400004
1084, 1300005, 1300006, 1400006, 1400005
1085, 1300006, 1300007, 1400007, 1400006
1086, 1300007, 1300008, 1400008, 1400007
1087, 1300008, 1300009, 1400009, 1400008
1088, 1300009, 1300010, 1400010, 1400009
1089, 1300010, 1300011, 1400011, 1400010
1090, 1300011, 1300012, 1400012, 1400011
1091, 1300012, 1300013, 1400013, 1400012
1092, 1300013, 1300014, 1400014, 1400013
1093, 1300014, 1300015, 1400015, 1400014
1094, 1300015, 1300016, 1400016, 1400015
1095, 1300016, 1300017, 1400017, 1400016
1096, 1300017, 1300018, 1400018, 1400017
1097, 1300018, 1300019, 1400019, 1400018
1098, 1300019, 1300020, 1400020, 1400019
1099, 1300020, 1300021, 1400021, 1400020
1100, 1300021, 1300022, 1400022, 1400021
1101, 1300022, 1300023, 1400023, 1400022
1102, 1300023, 1300024, 1400024, 1400023
1103, 1300024, 1300025, 1400025, 1400024
1104, 1300025, 1300026, 1400026, 1400025
1105, 1300026, 1300027, 1400027, 1400026
1106, 1300027, 1300028, 1400028, 1400027
1107, 1300028, 1300029, 1400029, 1400028
1108, 1300029, 1300030, 1400030, 1400029
1109, 1300030, 1300031, 1400031, 1400030
1110, 1300031, 1300032, 1400032, 1400031
1111, 1300032, 1300033, 1400033, 1400032
1112, 1300033, 1300034, 1400034, 1400033
1113, 1300034, 1300035, 1400035, 1400034
1114, 1300035, 1300036, 1400036, 1400035
1115, 1300036, 1300037, 1400037, 1400036
1116, 1300037, 1300038, 1400038, 1400037
1117, 1300038, 1300039, 1400039, 1400038
1118, 1300039, 1300040, 1400040, 1400039
1119, 1300040, 1300041, 1400041, 1400040
1120, 1300041, 1300042, 1400042, 1400041
1121, 1300042, 1300043, 1400043, 1400042
1122, 1300043, 1300044, 1400044, 1400043
1123, 1300044, 1300045, 1400045, 1400044
1124, 1300045, 1300046, 1400046, 1400045
1125, 1300046, 1300047, 1400047, 1400046
1126, 1300047, 1300048, 1400048, 1400047
1127, 1300048, 1300049, 1400049, 1400048
1128, 1300049, 1300050, 1400050, 1400049
1129, 1300050, 1300051, 1400051, 1400050
1130, 1300051, 1300052, 1400052, 1400051
1131, 1300052, 1300053, 1400053, 1400052
1132, 1300053, 1300054, 1400054, 1400053
1133, 1300054, 1300055, 1400055, 1400054
1134, 1300055, 1300056, 1400056, 1400055
1135, 1300056, 1300057, 1400057, 1400056
1136, 1300057, 1300058, 1400058, 1400057
1137, 1300058, 1300059, 1400059, 1400058
1138, 1300059, 1300060, 1400060, 1400059
1139, 1300060, 1300061, 1400061, 1400060
1140, 1300061, 1300062, 1400062, 1400061
1141, 1300062, 1300063, 1400063, 1400062
1142, 1300063, 1300064, 1400064, 1400063
1143, 1300064, 1300065, 1400065, 1400064
1144, 1300065, 1300066, 1400066, 1400065
1145, 1300066, 1300067, 1400067, 1400066
1146, 1300067, 1300068, 1400068, 1400067
1147, 1300068, 1300069, 1400069, 1400068
1148, 1300069, 1300070, 1400070, 1400069
1149, 1300070, 1300071, 1400071, 1400070
1150, 1300071, 1300072, 1400072, 1400071
1151, 1300072, 1300073, 1400073, 1400072
1152, 1300073, 1300074, 1400074, 1400073
1153, 1300074, 1300075, 1400075, 1400074
1154, 1300075, 1300076, 1400076, 1400075
1155, 1300076, 1300077, 1400077, 1400076
1156, 1300077, 1300078, 1400078, 1400077
1157, 1300078, 1300079, 1400079, 1400078
1158, 1300079, 1300080, 1400080, 1400079
1159, 1300080, 1300081, 1400081, 1400080
1160, 1300081, 1300082, 1400082, 1400081
1161, 1300082, 1300083, 1400083, 1400082
1162, 1300083, 1300084, 1400084, 1400083
1163, 1400001, 1400002, 1500002, 1500001
1164, 1400002, 1400003, 1500003, 1500002
1165, 1400003, 1400004, 1500004, 1500003
1166, 1400004, 1400005, 1500005, 1500004
1167, 1400005, 1400006, 1500006, 1500005
1168, 1400006, 1400007, 1500007, 1500006
1169, 1400007, 1400008, 1500008, 1500007
1170, 1400008, 1400009, 1500009, 1500008
1171, 1400009, 1400010, 1500010, 1500009
1172, 1400010, 1400011, 1500011, 1500010
1173, 1400011, 1400012, 1500012, 1500011
1174, 1400012, 1400013, 1500013, 1500012
1175, 1400013, 1400014, 1500014, 1500013
1176, 1400014, 1400015, 1500015, 1500014
1177, 1400015, 1400016, 1500016, 1500015
1178, 1400016, 1400017, 1500017, 1500016
1179, 1400017, 1400018, 1500018, 1500017
1180, 1400018, 1400019, 1500019, 1500018
1181, 1400019, 1400020, 1500020, 1500019
1182, 1400020, 1400021, 1500021, 1500020
1183, 1400021, 1400022, 1500022, 1500021
1184, 1400022, 1400023, 1500023, 1500022
1185, 1400023, 1400024, 1500024, 1500023
1186, 1400024, 1400025, 1500025, 1500024
1187, 1400025, 1400026, 1500026, 1500025
1188, 1400026, 1400027, 1500027, 1500026
1189, 1400027, 1400028, 1500028, 1500027
1190, 1400028, 1400029, 1500029, 1500028
1191, 1400029, 1400030, 1500030, 1500029
1192, 1400030, 1400031, 1500031, 1500030
1193, 1400031, 1400032, 1500032, 1500031
1194, 1400032, 1400033, 1500033, 1500032
1195, 1400033, 1400034, 1500034, 1500033
1196, 1400034, 1400035, 1500035, 1500034
1197, 1400035, 1400036, 1500036, 1500035
1198, 1400036, 1400037, 1500037, 1500036
1199, 1400037, 1400038, 1500038, 1500037
1200, 1400038, 1400039, 1500039, 1500038
1201, 1400039, 1400040, 1500040, 1500039
1202, 1400040, 1400041, 1500041, 1500040
1203, 1400041, 1400042, 1500042, 1500041
1204, 1400042, 1400043, 1500043, 1500042
1205, 1400043, 1400044, 1500044, 1500043
1206, 1400044, 1400045, 1500045, 1500044
1207, 1400045, 1400046, 1500046, 1500045
1208, 1400046, 1400047, 1500047, 1500046
1209, 1400047, 1400048, 1500048, 1500047
1210, 1400048, 1400049, 1500049, 1500048
1211, 1400049, 1400050, 1500050, 1500049
1212, 1400050, 1400051, 1500051, 1500050
1213, 1400051, 1400052, 1500052, 1500051
1214, 1400052, 1400053, 1500053, 1500052
1215, 1400053, 1400054, 1500054, 1500053
1216, 1400054, 1400055, 1500055, 1500054
1217, 1400055, 1400056, 1500056, 1500055
1218, 1400056, 1400057, 1500057, 1500056
1219, 1400057, 1400058, 1500058, 1500057
1220, 1400058, 1400059, 1500059, 1500058
1221, 1400059, 1400060, 1500060, 1500059
1222, 1400060, 1400061, 1500061, 1500060
1223, 1400061, 1400062, 1500062, 1500061
1224, 1400062, 1400063, 1500063, 1500062
1225, 1400063, 1400064, 1500064, 1500063
1226, 1400064, 1400065, 1500065, 1500064
1227, 1400065, 1400066, 1500066, 1500065
1228, 1400066, 1400067, 1500067, 1500066
1229, 1400067, 1400068, 1500068, 1500067
1230, 1400068, 1400069, 1500069, 1500068
1231, 1400069, 1400070, 1500070, 1500069
1232, 1400070, 1400071, 1500071, 1500070
1233, 1400071, 1400072, 1500072, 1500071
1234, 1400072, 1400073, 1500073, 1500072
1235, 1400073, 1400074, 1500074, 1500073
1236, 1400074, 1400075, 1500075, 1500074
1237, 1400075, 1400076, 1500076, 1500075
1238, 1400076, 1400077, 1500077, 1500076
1239, 1400077, 1400078, 1500078, 1500077
1240, 1400078, 1400079, 1500079, 1500078
1241, 1400079, 1400080, 1500080, 1500079
1242, 1400080, 1400081, 1500081, 1500080
1243, 1400081, 1400082, 1500082, 1500081
1244, 1400082, 1400083, 1500083, 1500082
1245, 1400083, 1400084, 1500084, 1500083
1246, 1500001, 1500002, 1600002, 1600001
1247, 1500002, 1500003, 1600003, 1600002
1248, 1500003, 1500004, 1600004, 1600003
1249, 1500004, 1500005, 1600005, 1600004
1250, 1500005, 1500006, 1600006, 1600005
1251, 1500006, 1500007, 1600007, 1600006
1252, 1500007, 1500008, 1600008, 1600007
1253, 1500008, 1500009, 1600009, 1600008
1254, 1500009, 1500010, 1600010, 1600009
1255, 1500010, 1500011, 1600011, 1600010
1256, 1500011, 1500012, 1600012, 1600011
1257, 1500012, 1500013, 1600013, 1600012
1258, 1500013, 1500014, 1600014, 1600013
1259, 1500014, 1500015, 1600015, 1600014
1260, 1500015, 1500016, 1600016, 1600015
1261, 1500016, 1500017, 1600017, 1600016
1262, 1500017, 1500018, 1600018, 1600017
1263, 1500018, 1500019, 1600019, 1600018
1264, 1500019, 1500020, 1600020, 1600019
1265, 1500020, 1500021, 1600021, 1600020
1266, 1500021, 1500022, 1600022, 1600021
1267, 1500022, 1500023, 1600023, 1600022
1268, 1500023, 1500024, 1600024, 1600023
1269, 1500024, 1500025, 1600025, 1600024
1270, 1500025, 1500026, 1600026, 1600025
1271, 1500026, 1500027, 1600027, 1600026
1272, 1500027, 1500028, 1600028, 1600027
1273, 1500028, 1500029, 1600029, 1600028
1274, 1500029, 1500030, 1600030, 1600029
1275, 1500030, 1500031, 1600031, 1600030
1276, 1500031, 1500032, 1600032, 1600031
1277, 1500032, 1500033, 1600033, 1600032
1278, 1500033, 1500034, 1600034, 1600033
1279, 1500034, 1500035, 1600035, 1600034
1280, 1500035, 1500036, 1600036, 1600035
1281, 1500036, 1500037, 1600037, 1600036
1282, 1500037, 1500038, 1600038, 1600037
1283, 1500038, 1500039, 1600039, 1600038
1284, 1500039, 1500040, 1600040, 1600039
1285, 1500040, 1500041, 1600041, 1600040
1286, 1500041, 1500042, 1600042, 1600041
1287, 1500042, 1500043, 1600043, 1600042
1288, 1500043, 1500044, 1600044, 1600043
1289, 1500044, 1500045, 1600045, 1600044
1290, 1500045, 1500046, 1600046, 1600045
1291, 1500046, 1500047, 1600047, 1600046
1292, 1500047, 1500048, 1600048, 1600047
1293, 1500048, 1500049, 1600049, 1600048
1294, 1500049, 1500050, 1600050, 1600049
1295, 1500050, 1500051, 1600051, 1600050
1296, 1500051, 1500052, 1600052, 1600051
1297, 1500052, 1500053, 1600053, 1600052
1298, 1500053, 1500054, 1600054, 1600053
1299, 1500054, 1500055, 1600055, 1600054
1300, 1500055, 1500056, 1600056, 1600055
1301, 1500056, 1500057, 1600057, 1600056
1302, 1500057, 1500058, 1600058, 1600057
1303, 1500058, 1500059, 1600059, 1600058
1304, 1500059, 1500060, 1600060, 1600059
1305, 1500060, 1500061, 1600061, 1600060
1306, 1500061, 1500062, 1600062, 1600061
1307, 1500062, 1500063, 1600063, 1600062
1308, 1500063, 1500064, 1600064, 1600063
1309, 1500064, 1500065, 1600065, 1600064
1310, 1500065, 1500066, 1600066, 1600065
1311, 1500066, 1500067, 1600067, 1600066
1312, 1500067, 1500068, 1600068, 1600067
1313, 1500068, 1500069, 1600069, 1600068
1314, 1500069, 1500070, 1600070, 1600069
1315, 1500070, 1500071, 1600071, 1600070
1316, 1500071, 1500072, 1600072, 1600071
1317, 1500072, 1500073, 1600073, 1600072
1318, 1500073, 1500074, 1600074, 1600073
1319, 1500074, 1500075, 1600075, 1600074
1320, 1500075, 1500076, 1600076, 1600075
1321, 1500076, 1500077, 1600077, 1600076
1322, 1500077, 1500078, 1600078, 1600077
1323, 1500078, 1500079, 1600079, 1600078
1324, 1500079, 1500080, 1600080, 1600079
1325, 1500080, 1500081, 1600081, 1600080
1326, 1500081, 1500082, 1600082, 1600081
1327, 1500082, 1500083, 1600083, 1600082
1328, 1500083, 1500084, 1600084, 1600083
1329, 1600001, 1600002, 1700002, 1700001
1330, 1600002, 1600003, 1700003, 1700002
1331, 1600003, 1600004, 1700004, 1700003
1332, 1600004, 1600005, 1700005, 1700004
1333, 1600005, 1600006, 1700006, 1700005
1334, 1600006, 1600007, 1700007, 1700006
1335, 1600007, 1600008, 1700008, 1700007
1336, 1600008, 1600009, 1700009, 1700008
1337, 1600009, 1600010, 1700010, 1700009
1338, 1600010, 1600011, 1700011, 1700010
1339, 1600011, 1600012, 1700012, 1700011
1340, 1600012, 1600013, 1700013, 1700012
1341, 1600013, 1600014, 1700014, 1700013
1342, 1600014, 1600015, 1700015, 1700014
1343, 1600015, 1600016, 1700016, 1700015
1344, 1600016, 1600017, 1700017, 1700016
1345, 1600017, 1600018, 1700018, 1700017
1346, 1600018, 1600019, 1700019, 1700018
1347, 1600019, 1600020, 1700020, 1700019
1348, 1600020, 1600021, 1700021, 1700020
1349, 1600021, 1600022, 1700022, 1700021
1350, 1600022, 1600023, 1700023, 1700022
1351, 1600023, 1600024, 1700024, 1700023
1352, 1600024, 1600025, 1700025, 1700024
1353, 1600025, 1600026, 1700026, 1700025
1354, 1600026, 1600027, 1700027, 1700026
1355, 1600027, 1600028, 1700028, 1700027
1356, 1600028, 1600029, 1700029, 1700028
1357, 1600029, 1600030, 1700030, 1700029
1358, 1600030, 1600031, 1700031, 1700030
1359, 1600031, 1600032, 1700032, 1700031
1360, 1600032, 1600033, 1700033, 1700032
1361, 1600033, 1600034, 1700034, 1700033
1362, 1600034, 1600035, 1700035, 1700034
1363, 1600035, 1600036, 1700036, 1700035
1364, 1600036, 1600037, 1700037, 1700036
1365, 1600037, 1600038, 1700038, 1700037
1366, 1600038, 1600039, 1700039, 1700038
1367, 1600039, 1600040, 1700040, 1700039
1368, 1600040, 1600041, 1700041, 1700040
1369, 1600041, 1600042, 1700042, 1700041
1370, 1600042, 1600043, 1700043, 1700042
1371, 1600043, 1600044, 1700044, 1700043
1372, 1600044, 1600045, 1700045, 1700044
1373, 1600045, 1600046, 1700046, 1700045
1374, 1600046, 1600047, 1700047, 1700046
1375, 1600047, 1600048, 1700048, 1700047
1376, 1600048, 1600049, 1700049, 1700048
1377, 1600049, 1600050, 1700050, 1700049
1378, 1600050, 1600051, 1700051, 1700050
1379, 1600051, 1600052, 1700052, 1700051
1380, 1600052, 1600053, 1700053, 1700052
1381, 1600053, 1600054, 1700054, 1700053
1382, 1600054, 1600055, 1700055, 1700054
1383, 1600055, 1600056, 1700056, 1700055
1384, 1600056, 1600057, 1700057, 1700056
1385, 1600057, 1600058, 1700058, 1700057
1386, 1600058, 1600059, 1700059, 1700058
1387, 1600059, 1600060, 1700060, 1700059
1388, 1600060, 1600061, 1700061, 1700060
1389, 1600061, 1600062, 1700062, 1700061
1390, 1600062, 1600063, 1700063, 1700062
1391, 1600063, 1600064, 1700064, 1700063
1392, 1600064, 1600065, 1700065, 1700064
1393, 1600065, 1600066, 1700066, 1700065
1394, 1600066, 1600067, 1700067, 1700066
1395, 1600067, 1600068, 1700068, 1700067
1396, 1600068, 1600069, 1700069, 1700068
1397, 1600069, 1600070, 1700070, 1700069
1398, 1600070, 1600071, 1700071, 1700070
1399, 1600071, 1600072, 1700072, 1700071
1400, 1600072, 1600073, 1700073, 1700072
1401, 1600073, 1600074, 1700074, 1700073
1402, 1600074, 1600075, 1700075, 1700074
1403, 1600075, 1600076, 1700076, 1700075
1404, 1600076, 1600077, 1700077, 1700076
1405, 1600077, 1600078, 1700078, 1700077
1406, 1600078, 1600079, 1700079, 1700078
1407, 1600079, 1600080, 1700080, 1700079
1408, 1600080, 1600081, 1700081, 1700080
1409, 1600081, 1600082, 1700082, 1700081
1410, 1600082, 1600083, 1700083, 1700082
1411, 1600083, 1600084, 1700084, 1700083
1412, 1700001, 1700002, 1800002, 1800001
1413, 1700002, 1700003, 1800003, 1800002
1414, 1700003, 1700004, 1800004, 1800003
1415, 1700004, 1700005, 1800005, 1800004
1416, 1700005, 1700006, 1800006, 1800005
1417, 1700006, 1700007, 1800007, 1800006
1418, 1700007, 1700008, 1800008, 1800007
1419, 1700008, 1700009, 1800009, 1800008
1420, 1700009, 1700010, 1800010, 1800009
1421, 1700010, 1700011, 1800011, 1800010
1422, 1700011, 1700012, 1800012, 1800011
1423, 1700012, 1700013, 1800013, 1800012
1424, 1700013, 1700014, 1800014, 1800013
1425, 1700014, 1700015, 1800015, 1800014
1426, 1700015, 1700016, 1800016, 1800015
1427, 1700016, 1700017, 1800017, 1800016
1428, 1700017, 1700018, 1800018, 1800017
1429, 1700018, 1700019, 1800019, 1800018
1430, 1700019, 1700020, 1800020, 1800019
1431, 1700020, 1700021, 1800021, 1800020
1432, 1700021, 1700022, 1800022, 1800021
1433, 1700022, 1700023, 1800023, 1800022
1434, 1700023, 1700024, 1800024, 1800023
1435, 1700024, 1700025, 1800025, 1800024
1436, 1700025, 1700026, 1800026, 1800025
1437, 1700026, 1700027, 1800027, 1800026
1438, 1700027, 1700028, 1800028, 1800027
1439, 1700028, 1700029, 1800029, 1800028
1440, 1700029, 1700030, 1800030, 1800029
1441, 1700030, 1700031, 1800031, 1800030
1442, 1700031, 1700032, 1800032, 1800031
1443, 1700032, 1700033, 1800033, 1800032
1444, 1700033, 1700034, 1800034, 1800033
1445, 1700034, 1700035, 1800035, 1800034
1446, 1700035, 1700036, 1800036, 1800035
1447, 1700036, 1700037, 1800037, 1800036
1448, 1700037, 1700038, 1800038, 1800037
1449, 1700038, 1700039, 1800039, 1800038
1450, 1700039, 1700040, 1800040, 1800039
1451, 1700040, 1700041, 1800041, 1800040
1452, 1700041, 1700042, 1800042, 1800041
1453, 1700042, 1700043, 1800043, 1800042
1454, 1700043, 1700044, 1800044, 1800043
1455, 1700044, 1700045, 1800045, 1800044
1456, 1700045, 1700046, 1800046, 1800045
1457, 1700046, 1700047, 1800047, 1800046
1458, 1700047, 1700048, 1800048, 1800047
1459, 1700048, 1700049, 1800049, 1800048
1460, 1700049, 1700050, 1800050, 1800049
1461, 1700050, 1700051, 1800051, 1800050
1462, 1700051, 1700052, 1800052, 1800051
1463, 1700052, 1700053, 1800053, 1800052
1464, 1700053, 1700054, 1800054, 1800053
1465, 1700054, 1700055, 1800055, 1800054
1466, 1700055, 1700056, 1800056, 1800055
1467, 1700056, 1700057, 1800057, 1800056
1468, 1700057, 1700058, 1800058, 1800057
1469, 1700058, 1700059, 1800059, 1800058
1470, 1700059, 1700060, 1800060, 1800059
1471, 1700060, 1700061, 1800061, 1800060
1472, 1700061, 1700062, 1800062, 1800061
1473, 1700062, 1700063, 1800063, 1800062
1474, 1700063, 1700064, 1800064, 1800063
1475, 1700064, 1700065, 1800065, 1800064
1476, 1700065, 1700066, 1800066, 1800065
1477, 1700066, 1700067, 1800067, 1800066
1478, 1700067, 1700068, 1800068, 1800067
1479, 1700068, 1700069, 1800069, 1800068
1480, 1700069, 1700070, 1800070, 1800069
1481, 1700070, 1700071, 1800071, 1800070
1482, 1700071, 1700072, 1800072, 1800071
1483, 1700072, 1700073, 1800073, 1800072
1484, 1700073, 1700074, 1800074, 1800073
1485, 1700074, 1700075, 1800075, 1800074
1486, 1700075, 1700076, 1800076, 1800075
1487, 1700076, 1700077, 1800077, 1800076
1488, 1700077, 1700078, 1800078, 1800077
1489, 1700078, 1700079, 1800079, 1800078
1490, 1700079, 1700080, 1800080, 1800079
1491, 1700080, 1700081, 1800081, 1800080
1492, 1700081, 1700082, 1800082, 1800081
1493, 1700082, 1700083, 1800083, 1800082
1494, 1700083, 1700084, 1800084, 1800083
1495, 1800001, 1800002, 1900002, 1900001
1496, 1800002, 1800003, 1900003, 1900002
1497, 1800003, 1800004, 1900004, 1900003
1498, 1800004, 1800005, 1900005, 1900004
1499, 1800005, 1800006, 1900006, 1900005
1500, 1800006, 1800007, 1900007, 1900006
1501, 1800007, 1800008, 1900008, 1900007
1502, 1800008, 1800009, 1900009, 1900008
1503, 1800009, 1800010, 1900010, 1900009
1504, 1800010, 1800011, 1900011, 1900010
1505, 1800011, 1800012, 1900012, 1900011
1506, 1800012, 1800013, 1900013, 1900012
1507, 1800013, 1800014, 1900014, 1900013
1508, 1800014, 1800015, 1900015, 1900014
1509, 1800015, 1800016, 1900016, 1900015
1510, 1800016, 1800017, 1900017, 1900016
1511, 1800017, 1800018, 1900018, 1900017
1512, 1800018, 1800019, 1900019, 1900018
1513, 1800019, 1800020, 1900020, 1900019
1514, 1800020, 1800021, 1900021, 1900020
1515, 1800021, 1800022, 1900022, 1900021
1516, 1800022, 1800023, 1900023, 1900022
1517, 1800023, 1800024, 1900024, 1900023
1518, 1800024, 1800025, 1900025, 1900024
1519, 1800025, 1800026, 1900026, 1900025
1520, 1800026, 1800027, 1900027, 1900026
1521, 1800027, 1800028, 1900028, 1900027
1522, 1800028, 1800029, 1900029, 1900028
1523, 1800029, 1800030, 1900030, 1900029
1524, 1800030, 1800031, 1900031, 1900030
1525, 1800031, 1800032, 1900032, 1900031
1526, 1800032, 1800033, 1900033, 1900032
1527, 1800033, 1800034, 1900034, 1900033
1528, 1800034, 1800035, 1900035, 1900034
1529, 1800035, 1800036, 1900036, 1900035
1530, 1800036, 1800037, 1900037, 1900036
1531, 1800037, 1800038, 1900038, 1900037
1532, 1800038, 1800039, 1900039, 1900038
1533, 1800039, 1800040, 1900040, 1900039
1534, 1800040, 1800041, 1900041, 1900040
1535, 1800041, 1800042, 1900042, 1900041
1536, 1800042, 1800043, 1900043, 1900042
1537, 1800043, 1800044, 1900044, 1900043
1538, 1800044, 1800045, 1900045, 1900044
1539, 1800045, 1800046, 1900046, 1900045
1540, 1800046, 1800047, 1900047, 1900046
1541, 1800047, 1800048, 1900048, 1900047
1542, 1800048, 1800049, 1900049, 1900048
1543, 1800049, 1800050, 1900050, 1900049
1544, 1800050, 1800051, 1900051, 1900050
1545, 1800051, 1800052, 1900052, 1900051
1546, 1800052, 1800053, 1900053, 1900052
1547, 1800053, 1800054, 1900054, 1900053
1548, 1800054, 1800055, 1900055, 1900054
1549, 1800055, 1800056, 1900056, 1900055
1550, 1800056, 1800057, 1900057, 1900056
1551, 1800057, 1800058, 1900058, 1900057
1552, 1800058, 1800059, 1900059, 1900058
1553, 1800059, 1800060, 1900060, 1900059
1554, 1800060, 1800061, 1900061, 1900060
1555, 1800061, 1800062, 1900062, 1900061
1556, 1800062, 1800063, 1900063, 1900062
1557, 1800063, 1800064, 1900064, 1900063
1558, 1800064, 1800065, 1900065, 1900064
1559, 1800065, 1800066, 1900066, 1900065
1560, 1800066, 1800067, 1900067, 1900066
1561, 1800067, 1800068, 1900068, 1900067
1562, 1800068, 1800069, 1900069, 1900068
1563, 1800069, 1800070, 1900070, 1900069
1564, 1800070, 1800071, 1900071, 1900070
1565, 1800071, 1800072, 1900072, 1900071
1566, 1800072, 1800073, 1900073, 1900072
1567, 1800073, 1800074, 1900074, 1900073
1568, 1800074, 1800075, 1900075, 1900074
1569, 1800075, 1800076, 1900076, 1900075
1570, 1800076, 1800077, 1900077, 1900076
1571, 1800077, 1800078, 1900078, 1900077
1572, 1800078, 1800079, 1900079, 1900078
1573, 1800079, 1800080, 1900080, 1900079
1574, 1800080, 1800081, 1900081, 1900080
1575, 1800081, 1800082, 1900082, 1900081
1576, 1800082, 1800083, 1900083, 1900082
1577, 1800083, 1800084, 1900084, 1900083
1578, 1900001, 1900002, 2000002, 2000001
1579, 1900002, 1900003, 2000003, 2000002
1580, 1900003, 1900004, 2000004, 2000003
1581, 1900004, 1900005, 2000005, 2000004
1582, 1900005, 1900006, 2000006, 2000005
1583, 1900006, 1900007, 2000007, 2000006
1584, 1900007, 1900008, 2000008, 2000007
1585, 1900008, 1900009, 2000009, 2000008
1586, 1900009, 1900010, 2000010, 2000009
1587, 1900010, 1900011, 2000011, 2000010
1588, 1900011, 1900012, 2000012, 2000011
1589, 1900012, 1900013, 2000013, 2000012
1590, 1900013, 1900014, 2000014, 2000013
1591, 1900014, 1900015, 2000015, 2000014
1592, 1900015, 1900016, 2000016, 2000015
1593, 1900016, 1900017, 2000017, 2000016
1594, 1900017, 1900018, 2000018, 2000017
1595, 1900018, 1900019, 2000019, 2000018
1596, 1900019, 1900020, 2000020, 2000019
1597, 1900020, 1900021, 2000021, 2000020
1598, 1900021, 1900022, 2000022, 2000021
1599, 1900022, 1900023, 2000023, 2000022
1600, 1900023, 1900024, 2000024, 2000023
1601, 1900024, 1900025, 2000025, 2000024
1602, 1900025, 1900026, 2000026, 2000025
1603, 1900026, 1900027, 2000027, 2000026
1604, 1900027, 1900028, 2000028, 2000027
1605, 1900028, 1900029, 2000029, 2000028
1606, 1900029, 1900030, 2000030, 2000029
1607, 1900030, 1900031, 2000031, 2000030
1608, 1900031, 1900032, 2000032, 2000031
1609, 1900032, 1900033, 2000033, 2000032
1610, 1900033, 1900034, 2000034, 2000033
1611, 1900034, 1900035, 2000035, 2000034
1612, 1900035, 1900036, 2000036, 2000035
1613, 1900036, 1900037, 2000037, 2000036
1614, 1900037, 1900038, 2000038, 2000037
1615, 1900038, 1900039, 2000039, 2000038
1616, 1900039, 1900040, 2000040, 2000039
1617, 1900040, 1900041, 2000041, 2000040
1618, 1900041, 1900042, 2000042, 2000041
1619, 1900042, 1900043, 2000043, 2000042
1620, 1900043, 1900044, 2000044, 2000043
1621, 1900044, 1900045, 2000045, 2000044
1622, 1900045, 1900046, 2000046, 2000045
1623, 1900046, 1900047, 2000047, 2000046
1624, 1900047, 1900048, 2000048, 2000047
1625, 1900048, 1900049, 2000049, 2000048
1626, 1900049, 1900050, 2000050, 2000049
1627, 1900050, 1900051, 2000051, 2000050
1628, 1900051, 1900052, 2000052, 2000051
1629, 1900052, 1900053, 2000053, 2000052
1630, 1900053, 1900054, 2000054, 2000053
1631, 1900054, 1900055, 2000055, 2000054
1632, 1900055, 1900056, 2000056, 2000055
1633, 1900056, 1900057, 2000057, 2000056
1634, 1900057, 1900058, 2000058, 2000057
1635, 1900058, 1900059, 2000059, 2000058
1636, 1900059, 1900060, 2000060, 2000059
1637, 1900060, 1900061, 2000061, 2000060
1638, 1900061, 1900062, 2000062, 2000061
1639, 1900062, 1900063, 2000063, 2000062
1640, 1900063, 1900064, 2000064, 2000063
1641, 1900064, 1900065, 2000065, 2000064
1642, 1900065, 1900066, 2000066, 2000065
1643, 1900066, 1900067, 2000067, 2000066
1644, 1900067, 1900068, 2000068, 2000067
1645, 1900068, 1900069, 2000069, 2000068
1646, 1900069, 1900070, 2000070, 2000069
1647, 1900070, 1900071, 2000071, 2000070
1648, 1900071, 1900072, 2000072, 2000071
1649, 1900072, 1900073, 2000073, 2000072
1650, 1900073, 1900074, 2000074, 2000073
1651, 1900074, 1900075, 2000075, 2000074
1652, 1900075, 1900076, 2000076, 2000075
1653, 1900076, 1900077, 2000077, 2000076
1654, 1900077, 1900078, 2000078, 2000077
1655, 1900078, 1900079, 2000079, 2000078
1656, 1900079, 1900080, 2000080, 2000079
1657, 1900080, 1900081, 2000081, 2000080
1658, 1900081, 1900082, 2000082, 2000081
1659, 1900082, 1900083, 2000083, 2000082
1660, 1900083, 1900084, 2000084, 2000083
1661, 2000001, 2000002, 2100002, 2100001
1662, 2000002, 2000003, 2100003, 2100002
1663, 2000003, 2000004, 2100004, 2100003
1664, 2000004, 2000005, 2100005, 2100004
1665, 2000005, 2000006, 2100006, 2100005
1666, 2000006, 2000007, 2100007, 2100006
1667, 2000007, 2000008, 2100008, 2100007
1668, 2000008, 2000009, 2100009, 2100008
1669, 2000009, 2000010, 2100010, 2100009
1670, 2000010, 2000011, 2100011, 2100010
1671, 2000011, 2000012, 2100012, 2100011
1672, 2000012, 2000013, 2100013, 2100012
1673, 2000013, 2000014, 2100014, 2100013
1674, 2000014, 2000015, 2100015, 2100014
1675, 2000015, 2000016, 2100016, 2100015
1676, 2000016, 2000017, 2100017, 2100016
1677, 2000017, 2000018, 2100018, 2100017
1678, 2000018, 2000019, 2100019, 2100018
1679, 2000019, 2000020, 2100020, 2100019
1680, 2000020, 2000021, 2100021, 2100020
1681, 2000021, 2000022, 2100022, 2100021
1682, 2000022, 2000023, 2100023, 2100022
1683, 2000023, 2000024, 2100024, 2100023
1684, 2000024, 2000025, 2100025, 2100024
1685, 2000025, 2000026, 2100026, 2100025
1686, 2000026, 2000027, 2100027, 2100026
1687, 2000027, 2000028, 2100028, 2100027
1688, 2000028, 2000029, 2100029, 2100028
1689, 2000029, 2000030, 2100030, 2100029
1690, 2000030, 2000031, 2100031, 2100030
1691, 2000031, 2000032, 2100032, 2100031
1692, 2000032, 2000033, 2100033, 2100032
1693, 2000033, 2000034, 2100034, 2100033
1694, 2000034, 2000035, 2100035, 2100034
1695, 2000035, 2000036, 2100036, 2100035
1696, 2000036, 2000037, 2100037, 2100036
1697, 2000037, 2000038, 2100038, 2100037
1698, 2000038, 2000039, 2100039, 2100038
1699, 2000039, 2000040, 2100040, 2100039
1700, 2000040, 2000041, 2100041, 2100040
1701, 2000041, 2000042, 2100042, 2100041
1702, 2000042, 2000043, 2100043, 2100042
1703, 2000043, 2000044, 2100044, 2100043
1704, 2000044, 2000045, 2100045, 2100044
1705, 2000045, 2000046, 2100046, 2100045
1706, 2000046, 2000047, 2100047, 2100046
1707, 2000047, 2000048, 2100048, 2100047
1708, 2000048, 2000049, 2100049, 2100048
1709, 2000049, 2000050, 2100050, 2100049
1710, 2000050, 2000051, 2100051, 2100050
1711, 2000051, 2000052, 2100052, 2100051
1712, 2000052, 2000053, 2100053, 2100052
1713, 2000053, 2000054, 2100054, 2100053
1714, 2000054, 2000055, 2100055, 2100054
1715, 2000055, 2000056, 2100056, 2100055
1716, 2000056, 2000057, 2100057, 2100056
1717, 2000057, 2000058, 2100058, 2100057
1718, 2000058, 2000059, 2100059, 2100058
1719, 2000059, 2000060, 2100060, 2100059
1720, 2000060, 2000061, 2100061, 2100060
1721, 2000061, 2000062, 2100062, 2100061
1722, 2000062, 2000063, 2100063, 2100062
1723, 2000063, 2000064, 2100064, 2100063
1724, 2000064, 2000065, 2100065, 2100064
1725, 2000065, 2000066, 2100066, 2100065
1726, 2000066, 2000067, 2100067, 2100066
1727, 2000067, 2000068, 2100068, 2100067
1728, 2000068, 2000069, 2100069, 2100068
1729, 2000069, 2000070, 2100070, 2100069
1730, 2000070, 2000071, 2100071, 2100070
1731, 2000071, 2000072, 2100072, 2100071
1732, 2000072, 2000073, 2100073, 2100072
1733, 2000073, 2000074, 2100074, 2100073
1734, 2000074, 2000075, 2100075, 2100074
1735, 2000075, 2000076, 2100076, 2100075
1736, 2000076, 2000077, 2100077, 2100076
1737, 2000077, 2000078, 2100078, 2100077
1738, 2000078, 2000079, 2100079, 2100078
1739, 2000079, 2000080, 2100080, 2100079
1740, 2000080, 2000081, 2100081, 2100080
1741, 2000081, 2000082, 2100082, 2100081
1742, 2000082, 2000083, 2100083, 2100082
1743, 2000083, 2000084, 2100084, 2100083
1744, 2100001, 2100002, 2200002, 2200001
1745, 2100002, 2100003, 2200003, 2200002
1746, 2100003, 2100004, 2200004, 2200003
1747, 2100004, 2100005, 2200005, 2200004
1748, 2100005, 2100006, 2200006, 2200005
1749, 2100006, 2100007, 2200007, 2200006
1750, 2100007, 2100008, 2200008, 2200007
1751, 2100008, 2100009, 2200009, 2200008
1752, 2100009, 2100010, 2200010, 2200009
1753, 2100010, 2100011, 2200011, 2200010
1754, 2100011, 2100012, 2200012, 2200011
1755, 2100012, 2100013, 2200013, 2200012
1756, 2100013, 2100014, 2200014, 2200013
1757, 2100014, 2100015, 2200015, 2200014
1758, 2100015, 2100016, 2200016, 2200015
1759, 2100016, 2100017, 2200017, 2200016
1760, 2100017, 2100018, 2200018, 2200017
1761, 2100018, 2100019, 2200019, 2200018
1762, 2100019, 2100020, 2200020, 2200019
1763, 2100020, 2100021, 2200021, 2200020
1764, 2100021, 2100022, 2200022, 2200021
1765, 2100022, 2100023, 2200023, 2200022
1766, 2100023, 2100024, 2200024, 2200023
1767, 2100024, 2100025, 2200025, 2200024
1768, 2100025, 2100026, 2200026, 2200025
1769, 2100026, 2100027, 2200027, 2200026
1770, 2100027, 2100028, 2200028, 2200027
1771, 2100028, 2100029, 2200029, 2200028
1772, 2100029, 2100030, 2200030, 2200029
1773, 2100030, 2100031, 2200031, 2200030
1774, 2100031, 2100032, 2200032, 2200031
1775, 2100032, 2100033, 2200033, 2200032
1776, 2100033, 2100034, 2200034, 2200033
1777, 2100034, 2100035, 2200035, 2200034
1778, 2100035, 2100036, 2200036, 2200035
1779, 2100036, 2100037, 2200037, 2200036
1780, 2100037, 2100038, 2200038, 2200037
1781, 2100038, 2100039, 2200039, 2200038
1782, 2100039, 2100040, 2200040, 2200039
1783, 2100040, 2100041, 2200041, 2200040
1784, 2100041, 2100042, 2200042, 2200041
1785, 2100042, 2100043, 2200043, 2200042
1786, 2100043, 2100044, 2200044, 2200043
1787, 2100044, 2100045, 2200045, 2200044
1788, 2100045, 2100046, 2200046, 2200045
1789, 2100046, 2100047, 2200047, 2200046
1790, 2100047, 2100048, 2200048, 2200047
1791, 2100048, 2100049, 2200049, 2200048
1792, 2100049, 2100050, 2200050, 2200049
1793, 2100050, 2100051, 2200051, 2200050
1794, 2100051, 2100052, 2200052, 2200051
1795, 2100052, 2100053, 2200053, 2200052
1796, 2100053, 2100054, 2200054, 2200053
1797, 2100054, 2100055, 2200055, 2200054
1798, 2100055, 2100056, 2200056, 2200055
1799, 2100056, 2100057, 2200057, 2200056
1800, 2100057, 2100058, 2200058, 2200057
1801, 2100058, 2100059, 2200059, 2200058
1802, 2100059, 2100060, 2200060, 2200059
1803, 2100060, 2100061, 2200061, 2200060
1804, 2100061, 2100062, 2200062, 2200061
1805, 2100062, 2100063, 2200063, 2200062
1806, 2100063, 2100064, 2200064, 2200063
1807, 2100064, 2100065, 2200065, 2200064
1808, 2100065, 2100066, 2200066, 2200065
1809, 2100066, 2100067, 2200067, 2200066
1810, 2100067, 2100068, 2200068, 2200067
1811, 2100068, 2100069, 2200069, 2200068
1812, 2100069, 2100070, 2200070, 2200069
1813, 2100070, 2100071, 2200071, 2200070
1814, 2100071, 2100072, 2200072, 2200071
1815, 2100072, 2100073, 2200073, 2200072
1816, 2100073, 2100074, 2200074, 2200073
1817, 2100074, 2100075, 2200075, 2200074
1818, 2100075, 2100076, 2200076, 2200075
1819, 2100076, 2100077, 2200077, 2200076
1820, 2100077, 2100078, 2200078, 2200077
1821, 2100078, 2100079, 2200079, 2200078
1822, 2100079, 2100080, 2200080, 2200079
1823, 2100080, 2100081, 2200081, 2200080
1824, 2100081, 2100082, 2200082, 2200081
1825, 2100082, 2100083, 2200083, 2200082
1826, 2100083, 2100084, 2200084, 2200083
1827, 2200001, 2200002, 2300002, 2300001
1828, 2200002, 2200003, 2300003, 2300002
1829, 2200003, 2200004, 2300004, 2300003
1830, 2200004, 2200005, 2300005, 2300004
1831, 2200005, 2200006, 2300006, 2300005
1832, 2200006, 2200007, 2300007, 2300006
1833, 2200007, 2200008, 2300008, 2300007
1834, 2200008, 2200009, 2300009, 2300008
1835, 2200009, 2200010, 2300010, 2300009
1836, 2200010, 2200011, 2300011, 2300010
1837, 2200011, 2200012, 2300012, 2300011
1838, 2200012, 2200013, 2300013, 2300012
1839, 2200013, 2200014, 2300014, 2300013
1840, 2200014, 2200015, 2300015, 2300014
1841, 2200015, 2200016, 2300016, 2300015
1842, 2200016, 2200017, 2300017, 2300016
1843, 2200017, 2200018, 2300018, 2300017
1844, 2200018, 2200019, 2300019, 2300018
1845, 2200019, 2200020, 2300020, 2300019
1846, 2200020, 2200021, 2300021, 2300020
1847, 2200021, 2200022, 2300022, 2300021
1848, 2200022, 2200023, 2300023, 2300022
1849, 2200023, 2200024, 2300024, 2300023
1850, 2200024, 2200025, 2300025, 2300024
1851, 2200025, 2200026, 2300026, 2300025
1852, 2200026, 2200027, 2300027, 2300026
1853, 2200027, 2200028, 2300028, 2300027
1854, 2200028, 2200029, 2300029, 2300028
1855, 2200029, 2200030, 2300030, 2300029
1856, 2200030, 2200031, 2300031, 2300030
1857, 2200031, 2200032, 2300032, 2300031
1858, 2200032, 2200033, 2300033, 2300032
1859, 2200033, 2200034, 2300034, 2300033
1860, 2200034, 2200035, 2300035, 2300034
1861, 2200035, 2200036, 2300036, 2300035
1862, 2200036, 2200037, 2300037, 2300036
1863, 2200037, 2200038, 2300038, 2300037
1864, 2200038, 2200039, 2300039, 2300038
1865, 2200039, 2200040, 2300040, 2300039
1866, 2200040, 2200041, 2300041, 2300040
1867, 2200041, 2200042, 2300042, 2300041
1868, 2200042, 2200043, 2300043, 2300042
1869, 2200043, 2200044, 2300044, 2300043
1870, 2200044, 2200045, 2300045, 2300044
1871, 2200045, 2200046, 2300046, 2300045
1872, 2200046, 2200047, 2300047, 2300046
1873, 2200047, 2200048, 2300048, 2300047
1874, 2200048, 2200049, 2300049, 2300048
1875, 2200049, 2200050, 2300050, 2300049
1876, 2200050, 2200051, 2300051, 2300050
1877, 2200051, 2200052, 2300052, 2300051
1878, 2200052, 2200053, 2300053, 2300052
1879, 2200053, 2200054, 2300054, 2300053
1880, 2200054, 2200055, 2300055, 2300054
1881, 2200055, 2200056, 2300056, 2300055
1882, 2200056, 2200057, 2300057, 2300056
1883, 2200057, 2200058, 2300058, 2300057
1884, 2200058, 2200059, 2300059, 2300058
1885, 2200059, 2200060, 2300060, 2300059
1886, 2200060, 2200061, 2300061, 2300060
1887, 2200061, 2200062, 2300062, 2300061
1888, 2200062, 2200063, 2300063, 2300062
1889, 2200063, 2200064, 2300064, 2300063
1890, 2200064, 2200065, 2300065, 2300064
1891, 2200065, 2200066, 2300066, 2300065
1892, 2200066, 2200067, 2300067, 2300066
1893, 2200067, 2200068, 2300068, 2300067
1894, 2200068, 2200069, 2300069, 2300068
1895, 2200069, 2200070, 2300070, 2300069
1896, 2200070, 2200071, 2300071, 2300070
1897, 2200071, 2200072, 2300072, 2300071
1898, 2200072, 2200073, 2300073, 2300072
1899, 2200073, 2200074, 2300074, 2300073
1900, 2200074, 2200075, 2300075, 2300074
1901, 2200075, 2200076, 2300076, 2300075
1902, 2200076, 2200077, 2300077, 2300076
1903, 2200077, 2200078, 2300078, 2300077
1904, 2200078, 2200079, 2300079, 2300078
1905, 2200079, 2200080, 2300080, 2300079
1906, 2200080, 2200081, 2300081, 2300080
1907, 2200081, 2200082, 2300082, 2300081
1908, 2200082, 2200083, 2300083, 2300082
1909, 2200083, 2200084, 2300084, 2300083
1910, 2300001, 2300002, 2400002, 2400001
1911, 2300002, 2300003, 2400003, 2400002
1912, 2300003, 2300004, 2400004, 2400003
1913, 2300004, 2300005, 2400005, 2400004
1914, 2300005, 2300006, 2400006, 2400005
1915, 2300006, 2300007, 2400007, 2400006
1916, 2300007, 2300008, 2400008, 2400007
1917, 2300008, 2300009, 2400009, 2400008
1918, 2300009, 2300010, 2400010, 2400009
1919, 2300010, 2300011, 2400011, 2400010
1920, 2300011, 2300012, 2400012, 2400011
1921, 2300012, 2300013, 2400013, 2400012
1922, 2300013, 2300014, 2400014, 2400013
1923, 2300014, 2300015, 2400015, 2400014
1924, 2300015, 2300016, 2400016, 2400015
1925, 2300016, 2300017, 2400017, 2400016
1926, 2300017, 2300018, 2400018, 2400017
1927, 2300018, 2300019, 2400019, 2400018
1928, 2300019, 2300020, 2400020, 2400019
1929, 2300020, 2300021, 2400021, 2400020
1930, 2300021, 2300022, 2400022, 2400021
1931, 2300022, 2300023, 2400023, 2400022
1932, 2300023, 2300024, 2400024, 2400023
1933, 2300024, 2300025, 2400025, 2400024
1934, 2300025, 2300026, 2400026, 2400025
1935, 2300026, 2300027, 2400027, 2400026
1936, 2300027, 2300028, 2400028, 2400027
1937, 2300028, 2300029, 2400029, 2400028
1938, 2300029, 2300030, 2400030, 2400029
1939, 2300030, 2300031, 2400031, 2400030
1940, 2300031, 2300032, 2400032, 2400031
1941, 2300032, 2300033, 2400033, 2400032
1942, 2300033, 2300034, 2400034, 2400033
1943, 2300034, 2300035, 2400035, 2400034
1944, 2300035, 2300036, 2400036, 2400035
1945, 2300036, 2300037, 2400037, 2400036
1946, 2300037, 2300038, 2400038, 2400037
1947, 2300038, 2300039, 2400039, 2400038
1948, 2300039, 2300040, 2400040, 2400039
1949, 2300040, 2300041, 2400041, 2400040
1950, 2300041, 2300042, 2400042, 2400041
1951, 2300042, 2300043, 2400043, 2400042
1952, 2300043, 2300044, 2400044, 2400043
1953, 2300044, 2300045, 2400045, 2400044
1954, 2300045, 2300046, 2400046, 2400045
1955, 2300046, 2300047, 2400047, 2400046
1956, 2300047, 2300048, 2400048, 2400047
1957, 2300048, 2300049, 2400049, 2400048
1958, 2300049, 2300050, 2400050, 2400049
1959, 2300050, 2300051, 2400051, 2400050
1960, 2300051, 2300052, 2400052, 2400051
1961, 2300052, 2300053, 2400053, 2400052
1962, 2300053, 2300054, 2400054, 2400053
1963, 2300054, 2300055, 2400055, 2400054
1964, 2300055, 2300056, 2400056, 2400055
1965, 2300056, 2300057, 2400057, 2400056
1966, 2300057, 2300058, 2400058, 2400057
1967, 2300058, 2300059, 2400059, 2400058
1968, 2300059, 2300060, 2400060, 2400059
1969, 2300060, 2300061, 2400061, 2400060
1970, 2300061, 2300062, 2400062, 2400061
1971, 2300062, 2300063, 2400063, 2400062
1972, 2300063, 2300064, 2400064, 2400063
1973, 2300064, 2300065, 2400065, 2400064
1974, 2300065, 2300066, 2400066, 2400065
1975, 2300066, 2300067, 2400067, 2400066
1976, 2300067, 2300068, 2400068, 2400067
1977, 2300068, 2300069, 2400069, 2400068
1978, 2300069, 2300070, 2400070, 2400069
1979, 2300070, 2300071, 2400071, 2400070
1980, 2300071, 2300072, 2400072, 2400071
1981, 2300072, 2300073, 2400073, 2400072
1982, 2300073, 2300074, 2400074, 2400073
1983, 2300074, 2300075, 2400075, 2400074
1984, 2300075, 2300076, 2400076, 2400075
1985, 2300076, 2300077, 2400077, 2400076
1986, 2300077, 2300078, 2400078, 2400077
1987, 2300078, 2300079, 2400079, 2400078
1988, 2300079, 2300080, 2400080, 2400079
1989, 2300080, 2300081, 2400081, 2400080
1990, 2300081, 2300082, 2400082, 2400081
1991, 2300082, 2300083, 2400083, 2400082
1992, 2300083, 2300084, 2400084, 2400083
1993, 2400001, 2400002, 2500002, 2500001
1994, 2400002, 2400003, 2500003, 2500002
1995, 2400003, 2400004, 2500004, 2500003
1996, 2400004, 2400005, 2500005, 2500004
1997, 2400005, 2400006, 2500006, 2500005
1998, 2400006, 2400007, 2500007, 2500006
1999, 2400007, 2400008, 2500008, 2500007
2000, 2400008, 2400009, 2500009, 2500008
2001, 2400009, 2400010, 2500010, 2500009
2002, 2400010, 2400011, 2500011, 2500010
2003, 2400011, 2400012, 2500012, 2500011
2004, 2400012, 2400013, 2500013, 2500012
2005, 2400013, 2400014, 2500014, 2500013
2006, 2400014, 2400015, 2500015, 2500014
2007, 2400015, 2400016, 2500016, 2500015
2008, 2400016, 2400017, 2500017, 2500016
2009, 2400017, 2400018, 2500018, 2500017
2010, 2400018, 2400019, 2500019, 2500018
2011, 2400019, 2400020, 2500020, 2500019
2012, 2400020, 2400021, 2500021, 2500020
2013, 2400021, 2400022, 2500022, 2500021
2014, 2400022, 2400023, 2500023, 2500022
2015, 2400023, 2400024, 2500024, 2500023
2016, 2400024, 2400025, 2500025, 2500024
2017, 2400025, 2400026, 2500026, 2500025
2018, 2400026, 2400027, 2500027, 2500026
2019, 2400027, 2400028, 2500028, 2500027
2020, 2400028, 2400029, 2500029, 2500028
2021, 2400029, 2400030, 2500030, 2500029
2022, 2400030, 2400031, 2500031, 2500030
2023, 2400031, 2400032, 2500032, 2500031
2024, 2400032, 2400033, 2500033, 2500032
2025, 2400033, 2400034, 2500034, 2500033
2026, 2400034, 2400035, 2500035, 2500034
2027, 2400035, 2400036, 2500036, 2500035
2028, 2400036, 2400037, 2500037, 2500036
2029, 2400037, 2400038, 2500038, 2500037
2030, 2400038, 2400039, 2500039, 2500038
2031, 2400039, 2400040, 2500040, 2500039
2032, 2400040, 2400041, 2500041, 2500040
2033, 2400041, 2400042, 2500042, 2500041
2034, 2400042, 2400043, 2500043, 2500042
2035, 2400043, 2400044, 2500044, 2500043
2036, 2400044, 2400045, 2500045, 2500044
2037, 2400045, 2400046, 2500046, 2500045
2038, 2400046, 2400047, 2500047, 2500046
2039, 2400047, 2400048, 2500048, 2500047
2040, 2400048, 2400049, 2500049, 2500048
2041, 2400049, 2400050, 2500050, 2500049
2042, 2400050, 2400051, 2500051, 2500050
2043, 2400051, 2400052, 2500052, 2500051
2044, 2400052, 2400053, 2500053, 2500052
2045, 2400053, 2400054, 2500054, 2500053
2046, 2400054, 2400055, 2500055, 2500054
2047, 2400055, 2400056, 2500056, 2500055
2048, 2400056, 2400057, 2500057, 2500056
2049, 2400057, 2400058, 2500058, 2500057
2050, 2400058, 2400059, 2500059, 2500058
2051, 2400059, 2400060, 2500060, 2500059
2052, 2400060, 2400061, 2500061, 2500060
2053, 2400061, 2400062, 2500062, 2500061
2054, 2400062, 2400063, 2500063, 2500062
2055, 2400063, 2400064, 2500064, 2500063
2056, 2400064, 2400065, 2500065, 2500064
2057, 2400065, 2400066, 2500066, 2500065
2058, 2400066, 2400067, 2500067, 2500066
2059, 2400067, 2400068, 2500068, 2500067
2060, 2400068, 2400069, 2500069, 2500068
2061, 2400069, 2400070, 2500070, 2500069
2062, 2400070, 2400071, 2500071, 2500070
2063, 2400071, 2400072, 2500072, 2500071
2064, 2400072, 2400073, 2500073, 2500072
2065, 2400073, 2400074, 2500074, 2500073
2066, 2400074, 2400075, 2500075, 2500074
2067, 2400075, 2400076, 2500076, 2500075
2068, 2400076, 2400077, 2500077, 2500076
2069, 2400077, 2400078, 2500078, 2500077
2070, 2400078, 2400079, 2500079, 2500078
2071, 2400079, 2400080, 2500080, 2500079
2072, 2400080, 2400081, 2500081, 2500080
2073, 2400081, 2400082, 2500082, 2500081
2074, 2400082, 2400083, 2500083, 2500082
2075, 2400083, 2400084, 2500084, 2500083
2076, 2500001, 2500002, 2600002, 2600001
2077, 2500002, 2500003, 2600003, 2600002
2078, 2500003, 2500004, 2600004, 2600003
2079, 2500004, 2500005, 2600005, 2600004
2080, 2500005, 2500006, 2600006, 2600005
2081, 2500006, 2500007, 2600007, 2600006
2082, 2500007, 2500008, 2600008, 2600007
2083, 2500008, 2500009, 2600009, 2600008
2084, 2500009, 2500010, 2600010, 2600009
2085, 2500010, 2500011, 2600011, 2600010
2086, 2500011, 2500012, 2600012, 2600011
2087, 2500012, 2500013, 2600013, 2600012
2088, 2500013, 2500014, 2600014, 2600013
2089, 2500014, 2500015, 2600015, 2600014
2090, 2500015, 2500016, 2600016, 2600015
2091, 2500016, 2500017, 2600017, 2600016
2092, 2500017, 2500018, 2600018, 2600017
2093, 2500018, 2500019, 2600019, 2600018
2094, 2500019, 2500020, 2600020, 2600019
2095, 2500020, 2500021, 2600021, 2600020
2096, 2500021, 2500022, 2600022, 2600021
2097, 2500022, 2500023, 2600023, 2600022
2098, 2500023, 2500024, 2600024, 2600023
2099, 2500024, 2500025, 2600025, 2600024
2100, 2500025, 2500026, 2600026, 2600025
2101, 2500026, 2500027, 2600027, 2600026
2102, 2500027, 2500028, 2600028, 2600027
2103, 2500028, 2500029, 2600029, 2600028
2104, 2500029, 2500030, 2600030, 2600029
2105, 2500030, 2500031, 2600031, 2600030
2106, 2500031, 2500032, 2600032, 2600031
2107, 2500032, 2500033, 2600033, 2600032
2108, 2500033, 2500034, 2600034, 2600033
2109, 2500034, 2500035, 2600035, 2600034
2110, 2500035, 2500036, 2600036, 2600035
2111, 2500036, 2500037, 2600037, 2600036
2112, 2500037, 2500038, 2600038, 2600037
2113, 2500038, 2500039, 2600039, 2600038
2114, 2500039, 2500040, 2600040, 2600039
2115, 2500040, 2500041, 2600041, 2600040
2116, 2500041, 2500042, 2600042, 2600041
2117, 2500042, 2500043, 2600043, 2600042
2118, 2500043, 2500044, 2600044, 2600043
2119, 2500044, 2500045, 2600045, 2600044
2120, 2500045, 2500046, 2600046, 2600045
2121, 2500046, 2500047, 2600047, 2600046
2122, 2500047, 2500048, 2600048, 2600047
2123, 2500048, 2500049, 2600049, 2600048
2124, 2500049, 2500050, 2600050, 2600049
2125, 2500050, 2500051, 2600051, 2600050
2126, 2500051, 2500052, 2600052, 2600051
2127, 2500052, 2500053, 2600053, 2600052
2128, 2500053, 2500054, 2600054, 2600053
2129, 2500054, 2500055, 2600055, 2600054
2130, 2500055, 2500056, 2600056, 2600055
2131, 2500056, 2500057, 2600057, 2600056
2132, 2500057, 2500058, 2600058, 2600057
2133, 2500058, 2500059, 2600059, 2600058
2134, 2500059, 2500060, 2600060, 2600059
2135, 2500060, 2500061, 2600061, 2600060
2136, 2500061, 2500062, 2600062, 2600061
2137, 2500062, 2500063, 2600063, 2600062
2138, 2500063, 2500064, 2600064, 2600063
2139, 2500064, 2500065, 2600065, 2600064
2140, 2500065, 2500066, 2600066, 2600065
2141, 2500066, 2500067, 2600067, 2600066
2142, 2500067, 2500068, 2600068, 2600067
2143, 2500068, 2500069, 2600069, 2600068
2144, 2500069, 2500070, 2600070, 2600069
2145, 2500070, 2500071, 2600071, 2600070
2146, 2500071, 2500072, 2600072, 2600071
2147, 2500072, 2500073, 2600073, 2600072
2148, 2500073, 2500074, 2600074, 2600073
2149, 2500074, 2500075, 2600075, 2600074
2150, 2500075, 2500076, 2600076, 2600075
2151, 2500076, 2500077, 2600077, 2600076
2152, 2500077, 2500078, 2600078, 2600077
2153, 2500078, 2500079, 2600079, 2600078
2154, 2500079, 2500080, 2600080, 2600079
2155, 2500080, 2500081, 2600081, 2600080
2156, 2500081, 2500082, 2600082, 2600081
2157, 2500082, 2500083, 2600083, 2600082
2158, 2500083, 2500084, 2600084, 2600083
2159, 2600001, 2600002, 2700002, 2700001
2160, 2600002, 2600003, 2700003, 2700002
2161, 2600003, 2600004, 2700004, 2700003
2162, 2600004, 2600005, 2700005, 2700004
2163, 2600005, 2600006, 2700006, 2700005
2164, 2600006, 2600007, 2700007, 2700006
2165, 2600007, 2600008, 2700008, 2700007
2166, 2600008, 2600009, 2700009, 2700008
2167, 2600009, 2600010, 2700010, 2700009
2168, 2600010, 2600011, 2700011, 2700010
2169, 2600011, 2600012, 2700012, 2700011
2170, 2600012, 2600013, 2700013, 2700012
2171, 2600013, 2600014, 2700014, 2700013
2172, 2600014, 2600015, 2700015, 2700014
2173, 2600015, 2600016, 2700016, 2700015
2174, 2600016, 2600017, 2700017, 2700016
2175, 2600017, 2600018, 2700018, 2700017
2176, 2600018, 2600019, 2700019, 2700018
2177, 2600019, 2600020, 2700020, 2700019
2178, 2600020, 2600021, 2700021, 2700020
2179, 2600021, 2600022, 2700022, 2700021
2180, 2600022, 2600023, 2700023, 2700022
2181, 2600023, 2600024, 2700024, 2700023
2182, 2600024, 2600025, 2700025, 2700024
2183, 2600025, 2600026, 2700026, 2700025
2184, 2600026, 2600027, 2700027, 2700026
2185, 2600027, 2600028, 2700028, 2700027
2186, 2600028, 2600029, 2700029, 2700028
2187, 2600029, 2600030, 2700030, 2700029
2188, 2600030, 2600031, 2700031, 2700030
2189, 2600031, 2600032, 2700032, 2700031
2190, 2600032, 2600033, 2700033, 2700032
2191, 2600033, 2600034, 2700034, 2700033
2192, 2600034, 2600035, 2700035, 2700034
2193, 2600035, 2600036, 2700036, 2700035
2194, 2600036, 2600037, 2700037, 2700036
2195, 2600037, 2600038, 2700038, 2700037
2196, 2600038, 2600039, 2700039, 2700038
2197, 2600039, 2600040, 2700040, 2700039
2198, 2600040, 2600041, 2700041, 2700040
2199, 2600041, 2600042, 2700042, 2700041
2200, 2600042, 2600043, 2700043, 2700042
2201, 2600043, 2600044, 2700044, 2700043
2202, 2600044, 2600045, 2700045, 2700044
2203, 2600045, 2600046, 2700046, 2700045
2204, 2600046, 2600047, 2700047, 2700046
2205, 2600047, 2600048, 2700048, 2700047
2206, 2600048, 2600049, 2700049, 2700048
2207, 2600049, 2600050, 2700050, 2700049
2208, 2600050, 2600051, 2700051, 2700050
2209, 2600051, 2600052, 2700052, 2700051
2210, 2600052, 2600053, 2700053, 2700052
2211, 2600053, 2600054, 2700054, 2700053
2212, 2600054, 2600055, 2700055, 2700054
2213, 2600055, 2600056, 2700056, 2700055
2214, 2600056, 2600057, 2700057, 2700056
2215, 2600057, 2600058, 2700058, 2700057
2216, 2600058, 2600059, 2700059, 2700058
2217, 2600059, 2600060, 2700060, 2700059
2218, 2600060, 2600061, 2700061, 2700060
2219, 2600061, 2600062, 2700062, 2700061
2220, 2600062, 2600063, 2700063, 2700062
2221, 2600063, 2600064, 2700064, 2700063
2222, 2600064, 2600065, 2700065, 2700064
2223, 2600065, 2600066, 2700066, 2700065
2224, 2600066, 2600067, 2700067, 2700066
2225, 2600067, 2600068, 2700068, 2700067
2226, 2600068, 2600069, 2700069, 2700068
2227, 2600069, 2600070, 2700070, 2700069
2228, 2600070, 2600071, 2700071, 2700070
2229, 2600071, 2600072, 2700072, 2700071
2230, 2600072, 2600073, 2700073, 2700072
2231, 2600073, 2600074, 2700074, 2700073
2232, 2600074, 2600075, 2700075, 2700074
2233, 2600075, 2600076, 2700076, 2700075
2234, 2600076, 2600077, 2700077, 2700076
2235, 2600077, 2600078, 2700078, 2700077
2236, 2600078, 2600079, 2700079, 2700078
2237, 2600079, 2600080, 2700080, 2700079
2238, 2600080, 2600081, 2700081, 2700080
2239, 2600081, 2600082, 2700082, 2700081
2240, 2600082, 2600083, 2700083, 2700082
2241, 2600083, 2600084, 2700084, 2700083
2242, 2700001, 2700002, 2800002, 2800001
2243, 2700002, 2700003, 2800003, 2800002
2244, 2700003, 2700004, 2800004, 2800003
2245, 2700004, 2700005, 2800005, 2800004
2246, 2700005, 2700006, 2800006, 2800005
2247, 2700006, 2700007, 2800007, 2800006
2248, 2700007, 2700008, 2800008, 2800007
2249, 2700008, 2700009, 2800009, 2800008
2250, 2700009, 2700010, 2800010, 2800009
2251, 2700010, 2700011, 2800011, 2800010
2252, 2700011, 2700012, 2800012, 2800011
2253, 2700012, 2700013, 2800013, 2800012
2254, 2700013, 2700014, 2800014, 2800013
2255, 2700014, 2700015, 2800015, 2800014
2256, 2700015, 2700016, 2800016, 2800015
2257, 2700016, 2700017, 2800017, 2800016
2258, 2700017, 2700018, 2800018, 2800017
2259, 2700018, 2700019, 2800019, 2800018
2260, 2700019, 2700020, 2800020, 2800019
2261, 2700020, 2700021, 2800021, 2800020
2262, 2700021, 2700022, 2800022, 2800021
2263, 2700022, 2700023, 2800023, 2800022
2264, 2700023, 2700024, 2800024, 2800023
2265, 2700024, 2700025, 2800025, 2800024
2266, 2700025, 2700026, 2800026, 2800025
2267, 2700026, 2700027, 2800027, 2800026
2268, 2700027, 2700028, 2800028, 2800027
2269, 2700028, 2700029, 2800029, 2800028
2270, 2700029, 2700030, 2800030, 2800029
2271, 2700030, 2700031, 2800031, 2800030
2272, 2700031, 2700032, 2800032, 2800031
2273, 2700032, 2700033, 2800033, 2800032
2274, 2700033, 2700034, 2800034, 2800033
2275, 2700034, 2700035, 2800035, 2800034
2276, 2700035, 2700036, 2800036, 2800035
2277, 2700036, 2700037, 2800037, 2800036
2278, 2700037, 2700038, 2800038, 2800037
2279, 2700038, 2700039, 2800039, 2800038
2280, 2700039, 2700040, 2800040, 2800039
2281, 2700040, 2700041, 2800041, 2800040
2282, 2700041, 2700042, 2800042, 2800041
2283, 2700042, 2700043, 2800043, 2800042
2284, 2700043, 2700044, 2800044, 2800043
2285, 2700044, 2700045, 2800045, 2800044
2286, 2700045, 2700046, 2800046, 2800045
2287, 2700046, 2700047, 2800047, 2800046
2288, 2700047, 2700048, 2800048, 2800047
2289, 2700048, 2700049, 2800049, 2800048
2290, 2700049, 2700050, 2800050, 2800049
2291, 2700050, 2700051, 2800051, 2800050
2292, 2700051, 2700052, 2800052, 2800051
2293, 2700052, 2700053, 2800053, 2800052
2294, 2700053, 2700054, 2800054, 2800053
2295, 2700054, 2700055, 2800055, 2800054
2296, 2700055, 2700056, 2800056, 2800055
2297, 2700056, 2700057, 2800057, 2800056
2298, 2700057, 2700058, 2800058, 2800057
2299, 2700058, 2700059, 2800059, 2800058
2300, 2700059, 2700060, 2800060, 2800059
2301, 2700060, 2700061, 2800061, 2800060
2302, 2700061, 2700062, 2800062, 2800061
2303, 2700062, 2700063, 2800063, 2800062
2304, 2700063, 2700064, 2800064, 2800063
2305, 2700064, 2700065, 2800065, 2800064
2306, 2700065, 2700066, 2800066, 2800065
2307, 2700066, 2700067, 2800067, 2800066
2308, 2700067, 2700068, 2800068, 2800067
2309, 2700068, 2700069, 2800069, 2800068
2310, 2700069, 2700070, 2800070, 2800069
2311, 2700070, 2700071, 2800071, 2800070
2312, 2700071, 2700072, 2800072, 2800071
2313, 2700072, 2700073, 2800073, 2800072
2314, 2700073, 2700074, 2800074, 2800073
2315, 2700074, 2700075, 2800075, 2800074
2316, 2700075, 2700076, 2800076, 2800075
2317, 2700076, 2700077, 2800077, 2800076
2318, 2700077, 2700078, 2800078, 2800077
2319, 2700078, 2700079, 2800079, 2800078
2320, 2700079, 2700080, 2800080, 2800079
2321, 2700080, 2700081, 2800081, 2800080
2322, 2700081, 2700082, 2800082, 2800081
2323, 2700082, 2700083, 2800083, 2800082
2324, 2700083, 2700084, 2800084, 2800083
2325, 2800001, 2800002, 2900002, 2900001
2326, 2800002, 2800003, 2900003, 2900002
2327, 2800003, 2800004, 2900004, 2900003
2328, 2800004, 2800005, 2900005, 2900004
2329, 2800005, 2800006, 2900006, 2900005
2330, 2800006, 2800007, 2900007, 2900006
2331, 2800007, 2800008, 2900008, 2900007
2332, 2800008, 2800009, 2900009, 2900008
2333, 2800009, 2800010, 2900010, 2900009
2334, 2800010, 2800011, 2900011, 2900010
2335, 2800011, 2800012, 2900012, 2900011
2336, 2800012, 2800013, 2900013, 2900012
2337, 2800013, 2800014, 2900014, 2900013
2338, 2800014, 2800015, 2900015, 2900014
2339, 2800015, 2800016, 2900016, 2900015
2340, 2800016, 2800017, 2900017, 2900016
2341, 2800017, 2800018, 2900018, 2900017
2342, 2800018, 2800019, 2900019, 2900018
2343, 2800019, 2800020, 2900020, 2900019
2344, 2800020, 2800021, 2900021, 2900020
2345, 2800021, 2800022, 2900022, 2900021
2346, 2800022, 2800023, 2900023, 2900022
2347, 2800023, 2800024, 2900024, 2900023
2348, 2800024, 2800025, 2900025, 2900024
2349, 2800025, 2800026, 2900026, 2900025
2350, 2800026, 2800027, 2900027, 2900026
2351, 2800027, 2800028, 2900028, 2900027
2352, 2800028, 2800029, 2900029, 2900028
2353, 2800029, 2800030, 2900030, 2900029
2354, 2800030, 2800031, 2900031, 2900030
2355, 2800031, 2800032, 2900032, 2900031
2356, 2800032, 2800033, 2900033, 2900032
2357, 2800033, 2800034, 2900034, 2900033
2358, 2800034, 2800035, 2900035, 2900034
2359, 2800035, 2800036, 2900036, 2900035
2360, 2800036, 2800037, 2900037, 2900036
2361, 2800037, 2800038, 2900038, 2900037
2362, 2800038, 2800039, 2900039, 2900038
2363, 2800039, 2800040, 2900040, 2900039
2364, 2800040, 2800041, 2900041, 2900040
2365, 2800041, 2800042, 2900042, 2900041
2366, 2800042, 2800043, 2900043, 2900042
2367, 2800043, 2800044, 2900044, 2900043
2368, 2800044, 2800045, 2900045, 2900044
2369, 2800045, 2800046, 2900046, 2900045
2370, 2800046, 2800047, 2900047, 2900046
2371, 2800047, 2800048, 2900048, 2900047
2372, 2800048, 2800049, 2900049, 2900048
2373, 2800049, 2800050, 2900050, 2900049
2374, 2800050, 2800051, 2900051, 2900050
2375, 2800051, 2800052, 2900052, 2900051
2376, 2800052, 2800053, 2900053, 2900052
2377, 2800053, 2800054, 2900054, 2900053
2378, 2800054, 2800055, 2900055, 2900054
2379, 2800055, 2800056, 2900056, 2900055
2380, 2800056, 2800057, 2900057, 2900056
2381, 2800057, 2800058, 2900058, 2900057
2382, 2800058, 2800059, 2900059, 2900058
2383, 2800059, 2800060, 2900060, 2900059
2384, 2800060, 2800061, 2900061, 2900060
2385, 2800061, 2800062, 2900062, 2900061
2386, 2800062, 2800063, 2900063, 2900062
2387, 2800063, 2800064, 2900064, 2900063
2388, 2800064, 2800065, 2900065, 2900064
2389, 2800065, 2800066, 2900066, 2900065
2390, 2800066, 2800067, 2900067, 2900066
2391, 2800067, 2800068, 2900068, 2900067
2392, 2800068, 2800069, 2900069, 2900068
2393, 2800069, 2800070, 2900070, 2900069
2394, 2800070, 2800071, 2900071, 2900070
2395, 2800071, 2800072, 2900072, 2900071
2396, 2800072, 2800073, 2900073, 2900072
2397, 2800073, 2800074, 2900074, 2900073
2398, 2800074, 2800075, 2900075, 2900074
2399, 2800075, 2800076, 2900076, 2900075
2400, 2800076, 2800077, 2900077, 2900076
2401, 2800077, 2800078, 2900078, 2900077
2402, 2800078, 2800079, 2900079, 2900078
2403, 2800079, 2800080, 2900080, 2900079
2404, 2800080, 2800081, 2900081, 2900080
2405, 2800081, 2800082, 2900082, 2900081
2406, 2800082, 2800083, 2900083, 2900082
2407, 2800083, 2800084, 2900084, 2900083
2408, 2900001, 2900002, 3000002, 3000001
2409, 2900002, 2900003, 3000003, 3000002
2410, 2900003, 2900004, 3000004, 3000003
2411, 2900004, 2900005, 3000005, 3000004
2412, 2900005, 2900006, 3000006, 3000005
2413, 2900006, 2900007, 3000007, 3000006
2414, 2900007, 2900008, 3000008, 3000007
2415, 2900008, 2900009, 3000009, 3000008
2416, 2900009, 2900010, 3000010, 3000009
2417, 2900010, 2900011, 3000011, 3000010
2418, 2900011, 2900012, 3000012, 3000011
2419, 2900012, 2900013, 3000013, 3000012
2420, 2900013, 2900014, 3000014, 3000013
2421, 2900014, 2900015, 3000015, 3000014
2422, 2900015, 2900016, 3000016, 3000015
2423, 2900016, 2900017, 3000017, 3000016
2424, 2900017, 2900018, 3000018, 3000017
2425, 2900018, 2900019, 3000019, 3000018
2426, 2900019, 2900020, 3000020, 3000019
2427, 2900020, 2900021, 3000021, 3000020
2428, 2900021, 2900022, 3000022, 3000021
2429, 2900022, 2900023, 3000023, 3000022
2430, 2900023, 2900024, 3000024, 3000023
2431, 2900024, 2900025, 3000025, 3000024
2432, 2900025, 2900026, 3000026, 3000025
2433, 2900026, 2900027, 3000027, 3000026
2434, 2900027, 2900028, 3000028, 3000027
2435, 2900028, 2900029, 3000029, 3000028
2436, 2900029, 2900030, 3000030, 3000029
2437, 2900030, 2900031, 3000031, 3000030
2438, 2900031, 2900032, 3000032, 3000031
2439, 2900032, 2900033, 3000033, 3000032
2440, 2900033, 2900034, 3000034, 3000033
2441, 2900034, 2900035, 3000035, 3000034
2442, 2900035, 2900036, 3000036, 3000035
2443, 2900036, 2900037, 3000037, 3000036
2444, 2900037, 2900038, 3000038, 3000037
2445, 2900038, 2900039, 3000039, 3000038
2446, 2900039, 2900040, 3000040, 3000039
2447, 2900040, 2900041, 3000041, 3000040
2448, 2900041, 2900042, 3000042, 3000041
2449, 2900042, 2900043, 3000043, 3000042
2450, 2900043, 2900044, 3000044, 3000043
2451, 2900044, 2900045, 3000045, 3000044
2452, 2900045, 2900046, 3000046, 3000045
2453, 2900046, 2900047, 3000047, 3000046
2454, 2900047, 2900048, 3000048, 3000047
2455, 2900048, 2900049, 3000049, 3000048
2456, 2900049, 2900050, 3000050, 3000049
2457, 2900050, 2900051, 3000051, 3000050
2458, 2900051, 2900052, 3000052, 3000051
2459, 2900052, 2900053, 3000053, 3000052
2460, 2900053, 2900054, 3000054, 3000053
2461, 2900054, 2900055, 3000055, 3000054
2462, 2900055, 2900056, 3000056, 3000055
2463, 2900056, 2900057, 3000057, 3000056
2464, 2900057, 2900058, 3000058, 3000057
2465, 2900058, 2900059, 3000059, 3000058
2466, 2900059, 2900060, 3000060, 3000059
2467, 2900060, 2900061, 3000061, 3000060
2468, 2900061, 2900062, 3000062, 3000061
2469, 2900062, 2900063, 3000063, 3000062
2470, 2900063, 2900064, 3000064, 3000063
2471, 2900064, 2900065, 3000065, 3000064
2472, 2900065, 2900066, 3000066, 3000065
2473, 2900066, 2900067, 3000067, 3000066
2474, 2900067, 2900068, 3000068, 3000067
2475, 2900068, 2900069, 3000069, 3000068
2476, 2900069, 2900070, 3000070, 3000069
2477, 2900070, 2900071, 3000071, 3000070
2478, 2900071, 2900072, 3000072, 3000071
2479, 2900072, 2900073, 3000073, 3000072
2480, 2900073, 2900074, 3000074, 3000073
2481, 2900074, 2900075, 3000075, 3000074
2482, 2900075, 2900076, 3000076, 3000075
2483, 2900076, 2900077, 3000077, 3000076
2484, 2900077, 2900078, 3000078, 3000077
2485, 2900078, 2900079, 3000079, 3000078
2486, 2900079, 2900080, 3000080, 3000079
2487, 2900080, 2900081, 3000081, 3000080
2488, 2900081, 2900082, 3000082, 3000081
2489, 2900082, 2900083, 3000083, 3000082
2490, 2900083, 2900084, 3000084, 3000083
*ELSET, ELSET=STRATUM
1827, 1828, 1829, 1830, 1831, 1832, 1833, 1834, 1835, 1836, 1837, 1838
1839, 1840, 1841, 1842, 1843, 1844, 1845, 1846, 1847, 1848, 1849, 1850
1851, 1852, 1853, 1854, 1855, 1856, 1857, 1858, 1859, 1860, 1861, 1862
1863, 1864, 1865, 1866, 1867, 1868, 1869, 1870, 1871, 1872, 1873, 1874
1875, 1876, 1877, 1878, 1879, 1880, 1881, 1882, 1883, 1884, 1885, 1886
1887, 1888, 1889, 1890, 1891, 1892, 1893, 1894, 1895, 1896, 1897, 1898
1899, 1900, 1901, 1902, 1903, 1904, 1905, 1906, 1907, 1908, 1909, 1910
1911, 1912, 1913, 1914, 1915, 1916, 1917, 1918, 1919, 1920, 1921, 1922
1923, 1924, 1925, 1926, 1927, 1928, 1929, 1930, 1931, 1932, 1933, 1934
1935, 1936, 1937, 1938, 1939, 1940, 1941, 1942, 1943, 1944, 1945, 1946
1947, 1948, 1949, 1950, 1951, 1952, 1953, 1954, 1955, 1956, 1957, 1958
1959, 1960, 1961, 1962, 1963, 1964, 1965, 1966, 1967, 1968, 1969, 1970
1971, 1972, 1973, 1974, 1975, 1976, 1977, 1978, 1979, 1980, 1981, 1982
1983, 1984, 1985, 1986, 1987, 1988, 1989, 1990, 1991, 1992, 1993, 1994
1995, 1996, 1997, 1998, 1999, 2000, 2001, 2002, 2003, 2004, 2005, 2006
2007, 2008, 2009, 2010, 2011, 2012, 2013, 2014, 2015, 2016, 2017, 2018
2019, 2020, 2021, 2022, 2023, 2024, 2025, 2026, 2027, 2028, 2029, 2030
2031, 2032, 2033, 2034, 2035, 2036, 2037, 2038, 2039, 2040, 2041, 2042
2043, 2044, 2045, 2046, 2047, 2048, 2049, 2050, 2051, 2052, 2053, 2054
2055, 2056, 2057, 2058, 2059, 2060, 2061, 2062, 2063, 2064, 2065, 2066
2067, 2068, 2069, 2070, 2071, 2072, 2073, 2074, 2075, 2076, 2077, 2078
2079, 2080, 2081, 2082, 2083, 2084, 2085, 2086, 2087, 2088, 2089, 2090
2091, 2092, 2093, 2094, 2095, 2096, 2097, 2098, 2099, 2100, 2101, 2102
2103, 2104, 2105, 2106, 2107, 2108, 2109, 2110, 2111, 2112, 2113, 2114
2115, 2116, 2117, 2118, 2119, 2120, 2121, 2122, 2123, 2124, 2125, 2126
2127, 2128, 2129, 2130, 2131, 2132, 2133, 2134, 2135, 2136, 2137, 2138
2139, 2140, 2141, 2142, 2143, 2144, 2145, 2146, 2147, 2148, 2149, 2150
2151, 2152, 2153, 2154, 2155, 2156, 2157, 2158, 2159, 2160, 2161, 2162
2163, 2164, 2165, 2166, 2167, 2168, 2169, 2170, 2171, 2172, 2173, 2174
2175, 2176, 2177, 2178, 2179, 2180, 2181, 2182, 2183, 2184, 2185, 2186
2187, 2188, 2189, 2190, 2191, 2192, 2193, 2194, 2195, 2196, 2197, 2198
2199, 2200, 2201, 2202, 2203, 2204, 2205, 2206, 2207, 2208, 2209, 2210
2211, 2212, 2213, 2214, 2215, 2216, 2217, 2218, 2219, 2220, 2221, 2222
2223, 2224, 2225, 2226, 2227, 2228, 2229, 2230, 2231, 2232, 2233, 2234
2235, 2236, 2237, 2238, 2239, 2240, 2241, 2242, 2243, 2244, 2245, 2246
2247, 2248, 2249, 2250, 2251, 2252, 2253, 2254, 2255, 2256, 2257, 2258
2259, 2260, 2261, 2262, 2263, 2264, 2265, 2266, 2267, 2268, 2269, 2270
2271, 2272, 2273, 2274, 2275, 2276, 2277, 2278, 2279, 2280, 2281, 2282
2283, 2284, 2285, 2286, 2287, 2288, 2289, 2290, 2291, 2292, 2293, 2294
2295, 2296, 2297, 2298, 2299, 2300, 2301, 2302, 2303, 2304, 2305, 2306
2307, 2308, 2309, 2310, 2311, 2312, 2313, 2314, 2315, 2316, 2317, 2318
2319, 2320, 2321, 2322, 2323, 2324, 2325, 2326, 2327, 2328, 2329, 2330
2331, 2332, 2333, 2334, 2335, 2336, 2337, 2338, 2339, 2340, 2341, 2342
2343, 2344, 2345, 2346, 2347, 2348, 2349, 2350, 2351, 2352, 2353, 2354
2355, 2356, 2357, 2358, 2359, 2360, 2361, 2362, 2363, 2364, 2365, 2366
2367, 2368, 2369, 2370, 2371, 2372, 2373, 2374, 2375, 2376, 2377, 2378
2379, 2380, 2381, 2382, 2383, 2384, 2385, 2386, 2387, 2388, 2389, 2390
2391, 2392, 2393, 2394, 2395, 2396, 2397, 2398, 2399, 2400, 2401, 2402
2403, 2404, 2405, 2406, 2407, 2408, 2409, 2410, 2411, 2412, 2413, 2414
2415, 2416, 2417, 2418, 2419, 2420, 2421, 2422, 2423, 2424, 2425, 2426
2427, 2428, 2429, 2430, 2431, 2432, 2433, 2434, 2435, 2436, 2437, 2438
2439, 2440, 2441, 2442, 2443, 2444, 2445, 2446, 2447, 2448, 2449, 2450
2451, 2452, 2453, 2454, 2455, 2456, 2457, 2458, 2459, 2460, 2461, 2462
2463, 2464, 2465, 2466, 2467, 2468, 2469, 2470, 2471, 2472, 2473, 2474
2475, 2476, 2477, 2478, 2479, 2480, 2481, 2482, 2483, 2484, 2485, 2486
2487, 2488, 2489, 2490
*ELSET, ELSET=EPIDERMIS
1163, 1164, 1165, 1166, 1167, 1168, 1169, 1170, 1171, 1172, 1173, 1174
1175, 1176, 1177, 1178, 1179, 1180, 1181, 1182, 1183, 1184, 1185, 1186
1187, 1188, 1189, 1190, 1191, 1192, 1193, 1194, 1195, 1196, 1197, 1198
1199, 1200, 1201, 1202, 1203, 1204, 1205, 1206, 1207, 1208, 1209, 1210
1211, 1212, 1213, 1214, 1215, 1216, 1217, 1218, 1219, 1220, 1221, 1222
1223, 1224, 1225, 1226, 1227, 1228, 1229, 1230, 1231, 1232, 1233, 1234
1235, 1236, 1237, 1238, 1239, 1240, 1241, 1242, 1243, 1244, 1245, 1246
1247, 1248, 1249, 1250, 1251, 1252, 1253, 1254, 1255, 1256, 1257, 1258
1259, 1260, 1261, 1262, 1263, 1264, 1265, 1266, 1267, 1268, 1269, 1270
1271, 1272, 1273, 1274, 1275, 1276, 1277, 1278, 1279, 1280, 1281, 1282
1283, 1284, 1285, 1286, 1287, 1288, 1289, 1290, 1291, 1292, 1293, 1294
1295, 1296, 1297, 1298, 1299, 1300, 1301, 1302, 1303, 1304, 1305, 1306
1307, 1308, 1309, 1310, 1311, 1312, 1313, 1314, 1315, 1316, 1317, 1318
1319, 1320, 1321, 1322, 1323, 1324, 1325, 1326, 1327, 1328, 1329, 1330
1331, 1332, 1333, 1334, 1335, 1336, 1337, 1338, 1339, 1340, 1341, 1342
1343, 1344, 1345, 1346, 1347, 1348, 1349, 1350, 1351, 1352, 1353, 1354
1355, 1356, 1357, 1358, 1359, 1360, 1361, 1362, 1363, 1364, 1365, 1366
1367, 1368, 1369, 1370, 1371, 1372, 1373, 1374, 1375, 1376, 1377, 1378
1379, 1380, 1381, 1382, 1383, 1384, 1385, 1386, 1387, 1388, 1389, 1390
1391, 1392, 1393, 1394, 1395, 1396, 1397, 1398, 1399, 1400, 1401, 1402
1403, 1404, 1405, 1406, 1407, 1408, 1409, 1410, 1411, 1412, 1413, 1414
1415, 1416, 1417, 1418, 1419, 1420, 1421, 1422, 1423, 1424, 1425, 1426
1427, 1428, 1429, 1430, 1431, 1432, 1433, 1434, 1435, 1436, 1437, 1438
1439, 1440, 1441, 1442, 1443, 1444, 1445, 1446, 1447, 1448, 1449, 1450
1451, 1452, 1453, 1454, 1455, 1456, 1457, 1458, 1459, 1460, 1461, 1462
1463, 1464, 1465, 1466, 1467, 1468, 1469, 1470, 1471, 1472, 1473, 1474
1475, 1476, 1477, 1478, 1479, 1480, 1481, 1482, 1483, 1484, 1485, 1486
1487, 1488, 1489, 1490, 1491, 1492, 1493, 1494, 1495, 1496, 1497, 1498
1499, 1500, 1501, 1502, 1503, 1504, 1505, 1506, 1507, 1508, 1509, 1510
1511, 1512, 1513, 1514, 1515, 1516, 1517, 1518, 1519, 1520, 1521, 1522
1523, 1524, 1525, 1526, 1527, 1528, 1529, 1530, 1531, 1532, 1533, 1534
1535, 1536, 1537, 1538, 1539, 1540, 1541, 1542, 1543, 1544, 1545, 1546
1547, 1548, 1549, 1550, 1551, 1552, 1553, 1554, 1555, 1556, 1557, 1558
1559, 1560, 1561, 1562, 1563, 1564, 1565, 1566, 1567, 1568, 1569, 1570
1571, 1572, 1573, 1574, 1575, 1576, 1577, 1578, 1579, 1580, 1581, 1582
1583, 1584, 1585, 1586, 1587, 1588, 1589, 1590, 1591, 1592, 1593, 1594
1595, 1596, 1597, 1598, 1599, 1600, 1601, 1602, 1603, 1604, 1605, 1606
1607, 1608, 1609, 1610, 1611, 1612, 1613, 1614, 1615, 1616, 1617, 1618
1619, 1620, 1621, 1622, 1623, 1624, 1625, 1626, 1627, 1628, 1629, 1630
1631, 1632, 1633, 1634, 1635, 1636, 1637, 1638, 1639, 1640, 1641, 1642
1643, 1644, 1645, 1646, 1647, 1648, 1649, 1650, 1651, 1652, 1653, 1654
1655, 1656, 1657, 1658, 1659, 1660, 1661, 1662, 1663, 1664, 1665, 1666
1667, 1668, 1669, 1670, 1671, 1672, 1673, 1674, 1675, 1676, 1677, 1678
1679, 1680, 1681, 1682, 1683, 1684, 1685, 1686, 1687, 1688, 1689, 1690
1691, 1692, 1693, 1694, 1695, 1696, 1697, 1698, 1699, 1700, 1701, 1702
1703, 1704, 1705, 1706, 1707, 1708, 1709, 1710, 1711, 1712, 1713, 1714
1715, 1716, 1717, 1718, 1719, 1720, 1721, 1722, 1723, 1724, 1725, 1726
1727, 1728, 1729, 1730, 1731, 1732, 1733, 1734, 1735, 1736, 1737, 1738
1739, 1740, 1741, 1742, 1743, 1744, 1745, 1746, 1747, 1748, 1749, 1750
1751, 1752, 1753, 1754, 1755, 1756, 1757, 1758, 1759, 1760, 1761, 1762
1763, 1764, 1765, 1766, 1767, 1768, 1769, 1770, 1771, 1772, 1773, 1774
1775, 1776, 1777, 1778, 1779, 1780, 1781, 1782, 1783, 1784, 1785, 1786
1787, 1788, 1789, 1790, 1791, 1792, 1793, 1794, 1795, 1796, 1797, 1798
1799, 1800, 1801, 1802, 1803, 1804, 1805, 1806, 1807, 1808, 1809, 1810
1811, 1812, 1813, 1814, 1815, 1816, 1817, 1818, 1819, 1820, 1821, 1822
1823, 1824, 1825, 1826
*ELSET, ELSET=DERMIS
1, 2, 3, 4, 5, 6, 7, 8, 9, 10, 11, 12
13, 14, 15, 16, 17, 18, 19, 20, 21, 22, 23, 24
25, 26, 27, 28, 29, 30, 31, 32, 33, 34, 35, 36
37, 38, 39, 40, 41, 42, 43, 44, 45, 46, 47, 48
49, 50, 51, 52, 53, 54, 55, 56, 57, 58, 59, 60
61, 62, 63, 64, 65, 66, 67, 68, 69, 70, 71, 72
73, 74, 75, 76, 77, 78, 79, 80, 81, 82, 83, 84
85, 86, 87, 88, 89, 90, 91, 92, 93, 94, 95, 96
97, 98, 99, 100, 101, 102, 103, 104, 105, 106, 107, 108
109, 110, 111, 112, 113, 114, 115, 116, 117, 118, 119, 120
121, 122, 123, 124, 125, 126, 127, 128, 129, 130, 131, 132
133, 134, 135, 136, 137, 138, 139, 140, 141, 142, 143, 144
145, 146, 147, 148, 149, 150, 151, 152, 153, 154, 155, 156
157, 158, 159, 160, 161, 162, 163, 164, 165, 166, 167, 168
169, 170, 171, 172, 173, 174, 175, 176, 177, 178, 179, 180
181, 182, 183, 184, 185, 186, 187, 188, 189, 190, 191, 192
193, 194, 195, 196, 197, 198, 199, 200, 201, 202, 203, 204
205, 206, 207, 208, 209, 210, 211, 212, 213, 214, 215, 216
217, 218, 219, 220, 221, 222, 223, 224, 225, 226, 227, 228
229, 230, 231, 232, 233, 234, 235, 236, 237, 238, 239, 240
241, 242, 243, 244, 245, 246, 247, 248, 249, 250, 251, 252
253, 254, 255, 256, 257, 258, 259, 260, 261, 262, 263, 264
265, 266, 267, 268, 269, 270, 271, 272, 273, 274, 275, 276
277, 278, 279, 280, 281, 282, 283, 284, 285, 286, 287, 288
289, 290, 291, 292, 293, 294, 295, 296, 297, 298, 299, 300
301, 302, 303, 304, 305, 306, 307, 308, 309, 310, 311, 312
313, 314, 315, 316, 317, 318, 319, 320, 321, 322, 323, 324
325, 326, 327, 328, 329, 330, 331, 332, 333, 334, 335, 336
337, 338, 339, 340, 341, 342, 343, 344, 345, 346, 347, 348
349, 350, 351, 352, 353, 354, 355, 356, 357, 358, 359, 360
361, 362, 363, 364, 365, 366, 367, 368, 369, 370, 371, 372
373, 374, 375, 376, 377, 378, 379, 380, 381, 382, 383, 384
385, 386, 387, 388, 389, 390, 391, 392, 393, 394, 395, 396
397, 398, 399, 400, 401, 402, 403, 404, 405, 406, 407, 408
409, 410, 411, 412, 413, 414, 415, 416, 417, 418, 419, 420
421, 422, 423, 424, 425, 426, 427, 428, 429, 430, 431, 432
433, 434, 435, 436, 437, 438, 439, 440, 441, 442, 443, 444
445, 446, 447, 448, 449, 450, 451, 452, 453, 454, 455, 456
457, 458, 459, 460, 461, 462, 463, 464, 465, 466, 467, 468
469, 470, 471, 472, 473, 474, 475, 476, 477, 478, 479, 480
481, 482, 483, 484, 485, 486, 487, 488, 489, 490, 491, 492
493, 494, 495, 496, 497, 498, 499, 500, 501, 502, 503, 504
505, 506, 507, 508, 509, 510, 511, 512, 513, 514, 515, 516
517, 518, 519, 520, 521, 522, 523, 524, 525, 526, 527, 528
529, 530, 531, 532, 533, 534, 535, 536, 537, 538, 539, 540
541, 542, 543, 544, 545, 546, 547, 548, 549, 550, 551, 552
553, 554, 555, 556, 557, 558, 559, 560, 561, 562, 563, 564
565, 566, 567, 568, 569, 570, 571, 572, 573, 574, 575, 576
577, 578, 579, 580, 581, 582, 583, 584, 585, 586, 587, 588
589, 590, 591, 592, 593, 594, 595, 596, 597, 598, 599, 600
601, 602, 603, 604, 605, 606, 607, 608, 609, 610, 611, 612
613, 614, 615, 616, 617, 618, 619, 620, 621, 622, 623, 624
625, 626, 627, 628, 629, 630, 631, 632, 633, 634, 635, 636
637, 638, 639, 640, 641, 642, 643, 644, 645, 646, 647, 648
649, 650, 651, 652, 653, 654, 655, 656, 657, 658, 659, 660
661, 662, 663, 664, 665, 666, 667, 668, 669, 670, 671, 672
673, 674, 675, 676, 677, 678, 679, 680, 681, 682, 683, 684
685, 686, 687, 688, 689, 690, 691, 692, 693, 694, 695, 696
697, 698, 699, 700, 701, 702, 703, 704, 705, 706, 707, 708
709, 710, 711, 712, 713, 714, 715, 716, 717, 718, 719, 720
721, 722, 723, 724, 725, 726, 727, 728, 729, 730, 731, 732
733, 734, 735, 736, 737, 738, 739, 740, 741, 742, 743, 744
745, 746, 747, 748, 749, 750, 751, 752, 753, 754, 755, 756
757, 758, 759, 760, 761, 762, 763, 764, 765, 766, 767, 768
769, 770, 771, 772, 773, 774, 775, 776, 777, 778, 779, 780
781, 782, 783, 784, 785, 786, 787, 788, 789, 790, 791, 792
793, 794, 795, 796, 797, 798, 799, 800, 801, 802, 803, 804
805, 806, 807, 808, 809, 810, 811, 812, 813, 814, 815, 816
817, 818, 819, 820, 821, 822, 823, 824, 825, 826, 827, 828
829, 830, 831, 832, 833, 834, 835, 836, 837, 838, 839, 840
841, 842, 843, 844, 845, 846, 847, 848, 849, 850, 851, 852
853, 854, 855, 856, 857, 858, 859, 860, 861, 862, 863, 864
865, 866, 867, 868, 869, 870, 871, 872, 873, 874, 875, 876
877, 878, 879, 880, 881, 882, 883, 884, 885, 886, 887, 888
889, 890, 891, 892, 893, 894, 895, 896, 897, 898, 899, 900
901, 902, 903, 904, 905, 906, 907, 908, 909, 910, 911, 912
913, 914, 915, 916, 917, 918, 919, 920, 921, 922, 923, 924
925, 926, 927, 928, 929, 930, 931, 932, 933, 934, 935, 936
937, 938, 939, 940, 941, 942, 943, 944, 945, 946, 947, 948
949, 950, 951, 952, 953, 954, 955, 956, 957, 958, 959, 960
961, 962, 963, 964, 965, 966, 967, 968, 969, 970, 971, 972
973, 974, 975, 976, 977, 978, 979, 980, 981, 982, 983, 984
985, 986, 987, 988, 989, 990, 991, 992, 993, 994, 995, 996
997, 998, 999, 1000, 1001, 1002, 1003, 1004, 1005, 1006, 1007, 1008
1009, 1010, 1011, 1012, 1013, 1014, 1015, 1016, 1017, 1018, 1019, 1020
1021, 1022, 1023, 1024, 1025, 1026, 1027, 1028, 1029, 1030, 1031, 1032
1033, 1034, 1035, 1036, 1037, 1038, 1039, 1040, 1041, 1042, 1043, 1044
1045, 1046, 1047, 1048, 1049, 1050, 1051, 1052, 1053, 1054, 1055, 1056
1057, 1058, 1059, 1060, 1061, 1062, 1063, 1064, 1065, 1066, 1067, 1068
1069, 1070, 1071, 1072, 1073, 1074, 1075, 1076, 1077, 1078, 1079, 1080
1081, 1082, 1083, 1084, 1085, 1086, 1087, 1088, 1089, 1090, 1091, 1092
1093, 1094, 1095, 1096, 1097, 1098, 1099, 1100, 1101, 1102, 1103, 1104
1105, 1106, 1107, 1108, 1109, 1110, 1111, 1112, 1113, 1114, 1115, 1116
1117, 1118, 1119, 1120, 1121, 1122, 1123, 1124, 1125, 1126, 1127, 1128
1129, 1130, 1131, 1132, 1133, 1134, 1135, 1136, 1137, 1138, 1139, 1140
1141, 1142, 1143, 1144, 1145, 1146, 1147, 1148, 1149, 1150, 1151, 1152
1153, 1154, 1155, 1156, 1157, 1158, 1159, 1160, 1161, 1162
*ELSET, ELSET=SKIN_ALL
STRATUM, EPIDERMIS, DERMIS
*SURFACE, TYPE=ELEMENT, NAME=SKIN_SURF
SKIN_ALL,
*NSET, NSET=NBOT
1, 2, 3, 4, 5, 6, 7, 8, 9, 10, 11, 12
13, 14, 15, 16, 17, 18, 19, 20, 21, 22, 23, 24
25, 26, 27, 28, 29, 30, 31, 32, 33, 34, 35, 36
37, 38, 39, 40, 41, 42, 43, 44, 45, 46, 47, 48
49, 50, 51, 52, 53, 54, 55, 56, 57, 58, 59, 60
61, 62, 63, 64, 65, 66, 67, 68, 69, 70, 71, 72
73, 74, 75, 76, 77, 78, 79, 80, 81, 82, 83, 84
*NSET, NSET=NAXIS
1, 100001, 200001, 300001, 400001, 500001, 600001, 700001, 800001, 900001, 1000001, 1100001
1200001, 1300001, 1400001, 1500001, 1600001, 1700001, 1800001, 1900001, 2000001, 2100001, 2200001, 2300001
2400001, 2500001, 2600001, 2700001, 2800001, 2900001, 3000001
*NSET, NSET=NRIGHT
84, 100084, 200084, 300084, 400084, 500084, 600084, 700084, 800084, 900084, 1000084, 1100084
1200084, 1300084, 1400084, 1500084, 1600084, 1700084, 1800084, 1900084, 2000084, 2100084, 2200084, 2300084
2400084, 2500084, 2600084, 2700084, 2800084, 2900084, 3000084
**
** --- Deformable needle wall as 2D solid (CAX4R, variable wall) ---
**  R_in=30 (bore) ; outer R_tip=50 -> taper 300um -> R_out=150
*NODE
5000000, 30.0000, 1550.0000
5000001, 35.0000, 1550.0000
5000002, 40.0000, 1550.0000
5000003, 45.0000, 1550.0000
5000004, 50.0000, 1550.0000
5001000, 30.0000, 1555.0000
5001001, 35.4167, 1555.0000
5001002, 40.8333, 1555.0000
5001003, 46.2500, 1555.0000
5001004, 51.6667, 1555.0000
5002000, 30.0000, 1560.7500
5002001, 35.8958, 1560.7500
5002002, 41.7917, 1560.7500
5002003, 47.6875, 1560.7500
5002004, 53.5833, 1560.7500
5003000, 30.0000, 1567.3625
5003001, 36.4469, 1567.3625
5003002, 42.8937, 1567.3625
5003003, 49.3406, 1567.3625
5003004, 55.7875, 1567.3625
5004000, 30.0000, 1574.9669
5004001, 37.0806, 1574.9669
5004002, 44.1611, 1574.9669
5004003, 51.2417, 1574.9669
5004004, 58.3223, 1574.9669
5005000, 30.0000, 1583.7119
5005001, 37.8093, 1583.7119
5005002, 45.6187, 1583.7119
5005003, 53.4280, 1583.7119
5005004, 61.2373, 1583.7119
5006000, 30.0000, 1593.7687
5006001, 38.6474, 1593.7687
5006002, 47.2948, 1593.7687
5006003, 55.9422, 1593.7687
5006004, 64.5896, 1593.7687
5007000, 30.0000, 1605.3340
5007001, 39.6112, 1605.3340
5007002, 49.2223, 1605.3340
5007003, 58.8335, 1605.3340
5007004, 68.4447, 1605.3340
5008000, 30.0000, 1618.6341
5008001, 40.7195, 1618.6341
5008002, 51.4390, 1618.6341
5008003, 62.1585, 1618.6341
5008004, 72.8780, 1618.6341
5009000, 30.0000, 1633.9292
5009001, 41.9941, 1633.9292
5009002, 53.9882, 1633.9292
5009003, 65.9823, 1633.9292
5009004, 77.9764, 1633.9292
5010000, 30.0000, 1651.5186
5010001, 43.4599, 1651.5186
5010002, 56.9198, 1651.5186
5010003, 70.3797, 1651.5186
5010004, 83.8395, 1651.5186
5011000, 30.0000, 1671.7464
5011001, 45.1455, 1671.7464
5011002, 60.2911, 1671.7464
5011003, 75.4366, 1671.7464
5011004, 90.5821, 1671.7464
5012000, 30.0000, 1695.0083
5012001, 47.0840, 1695.0083
5012002, 64.1680, 1695.0083
5012003, 81.2521, 1695.0083
5012004, 98.3361, 1695.0083
5013000, 30.0000, 1721.7596
5013001, 49.3133, 1721.7596
5013002, 68.6266, 1721.7596
5013003, 87.9399, 1721.7596
5013004, 107.2532, 1721.7596
5014000, 30.0000, 1752.5235
5014001, 51.8770, 1752.5235
5014002, 73.7539, 1752.5235
5014003, 95.6309, 1752.5235
5014004, 117.5078, 1752.5235
5015000, 30.0000, 1787.9021
5015001, 54.8252, 1787.9021
5015002, 79.6504, 1787.9021
5015003, 104.4755, 1787.9021
5015004, 129.3007, 1787.9021
5016000, 30.0000, 1827.9021
5016001, 58.1585, 1827.9021
5016002, 86.3170, 1827.9021
5016003, 114.4755, 1827.9021
5016004, 142.6340, 1827.9021
5017000, 30.0000, 1867.9021
5017001, 60.0000, 1867.9021
5017002, 90.0000, 1867.9021
5017003, 120.0000, 1867.9021
5017004, 150.0000, 1867.9021
5018000, 30.0000, 1907.9021
5018001, 60.0000, 1907.9021
5018002, 90.0000, 1907.9021
5018003, 120.0000, 1907.9021
5018004, 150.0000, 1907.9021
5019000, 30.0000, 1947.9021
5019001, 60.0000, 1947.9021
5019002, 90.0000, 1947.9021
5019003, 120.0000, 1947.9021
5019004, 150.0000, 1947.9021
5020000, 30.0000, 1987.9021
5020001, 60.0000, 1987.9021
5020002, 90.0000, 1987.9021
5020003, 120.0000, 1987.9021
5020004, 150.0000, 1987.9021
5021000, 30.0000, 2027.9021
5021001, 60.0000, 2027.9021
5021002, 90.0000, 2027.9021
5021003, 120.0000, 2027.9021
5021004, 150.0000, 2027.9021
5022000, 30.0000, 2067.9021
5022001, 60.0000, 2067.9021
5022002, 90.0000, 2067.9021
5022003, 120.0000, 2067.9021
5022004, 150.0000, 2067.9021
5023000, 30.0000, 2107.9021
5023001, 60.0000, 2107.9021
5023002, 90.0000, 2107.9021
5023003, 120.0000, 2107.9021
5023004, 150.0000, 2107.9021
5024000, 30.0000, 2147.9021
5024001, 60.0000, 2147.9021
5024002, 90.0000, 2147.9021
5024003, 120.0000, 2147.9021
5024004, 150.0000, 2147.9021
5025000, 30.0000, 2187.9021
5025001, 60.0000, 2187.9021
5025002, 90.0000, 2187.9021
5025003, 120.0000, 2187.9021
5025004, 150.0000, 2187.9021
5026000, 30.0000, 2227.9021
5026001, 60.0000, 2227.9021
5026002, 90.0000, 2227.9021
5026003, 120.0000, 2227.9021
5026004, 150.0000, 2227.9021
5027000, 30.0000, 2267.9021
5027001, 60.0000, 2267.9021
5027002, 90.0000, 2267.9021
5027003, 120.0000, 2267.9021
5027004, 150.0000, 2267.9021
5028000, 30.0000, 2307.9021
5028001, 60.0000, 2307.9021
5028002, 90.0000, 2307.9021
5028003, 120.0000, 2307.9021
5028004, 150.0000, 2307.9021
5029000, 30.0000, 2347.9021
5029001, 60.0000, 2347.9021
5029002, 90.0000, 2347.9021
5029003, 120.0000, 2347.9021
5029004, 150.0000, 2347.9021
5030000, 30.0000, 2387.9021
5030001, 60.0000, 2387.9021
5030002, 90.0000, 2387.9021
5030003, 120.0000, 2387.9021
5030004, 150.0000, 2387.9021
5031000, 30.0000, 2427.9021
5031001, 60.0000, 2427.9021
5031002, 90.0000, 2427.9021
5031003, 120.0000, 2427.9021
5031004, 150.0000, 2427.9021
5032000, 30.0000, 2467.9021
5032001, 60.0000, 2467.9021
5032002, 90.0000, 2467.9021
5032003, 120.0000, 2467.9021
5032004, 150.0000, 2467.9021
5033000, 30.0000, 2507.9021
5033001, 60.0000, 2507.9021
5033002, 90.0000, 2507.9021
5033003, 120.0000, 2507.9021
5033004, 150.0000, 2507.9021
5034000, 30.0000, 2547.9021
5034001, 60.0000, 2547.9021
5034002, 90.0000, 2547.9021
5034003, 120.0000, 2547.9021
5034004, 150.0000, 2547.9021
5035000, 30.0000, 2587.9021
5035001, 60.0000, 2587.9021
5035002, 90.0000, 2587.9021
5035003, 120.0000, 2587.9021
5035004, 150.0000, 2587.9021
5036000, 30.0000, 2627.9021
5036001, 60.0000, 2627.9021
5036002, 90.0000, 2627.9021
5036003, 120.0000, 2627.9021
5036004, 150.0000, 2627.9021
5037000, 30.0000, 2667.9021
5037001, 60.0000, 2667.9021
5037002, 90.0000, 2667.9021
5037003, 120.0000, 2667.9021
5037004, 150.0000, 2667.9021
5038000, 30.0000, 2707.9021
5038001, 60.0000, 2707.9021
5038002, 90.0000, 2707.9021
5038003, 120.0000, 2707.9021
5038004, 150.0000, 2707.9021
5039000, 30.0000, 2747.9021
5039001, 60.0000, 2747.9021
5039002, 90.0000, 2747.9021
5039003, 120.0000, 2747.9021
5039004, 150.0000, 2747.9021
5040000, 30.0000, 2787.9021
5040001, 60.0000, 2787.9021
5040002, 90.0000, 2787.9021
5040003, 120.0000, 2787.9021
5040004, 150.0000, 2787.9021
5041000, 30.0000, 2827.9021
5041001, 60.0000, 2827.9021
5041002, 90.0000, 2827.9021
5041003, 120.0000, 2827.9021
5041004, 150.0000, 2827.9021
5042000, 30.0000, 2867.9021
5042001, 60.0000, 2867.9021
5042002, 90.0000, 2867.9021
5042003, 120.0000, 2867.9021
5042004, 150.0000, 2867.9021
5043000, 30.0000, 2907.9021
5043001, 60.0000, 2907.9021
5043002, 90.0000, 2907.9021
5043003, 120.0000, 2907.9021
5043004, 150.0000, 2907.9021
5044000, 30.0000, 2947.9021
5044001, 60.0000, 2947.9021
5044002, 90.0000, 2947.9021
5044003, 120.0000, 2947.9021
5044004, 150.0000, 2947.9021
5045000, 30.0000, 2987.9021
5045001, 60.0000, 2987.9021
5045002, 90.0000, 2987.9021
5045003, 120.0000, 2987.9021
5045004, 150.0000, 2987.9021
5046000, 30.0000, 3027.9021
5046001, 60.0000, 3027.9021
5046002, 90.0000, 3027.9021
5046003, 120.0000, 3027.9021
5046004, 150.0000, 3027.9021
5047000, 30.0000, 3067.9021
5047001, 60.0000, 3067.9021
5047002, 90.0000, 3067.9021
5047003, 120.0000, 3067.9021
5047004, 150.0000, 3067.9021
5048000, 30.0000, 3107.9021
5048001, 60.0000, 3107.9021
5048002, 90.0000, 3107.9021
5048003, 120.0000, 3107.9021
5048004, 150.0000, 3107.9021
5049000, 30.0000, 3147.9021
5049001, 60.0000, 3147.9021
5049002, 90.0000, 3147.9021
5049003, 120.0000, 3147.9021
5049004, 150.0000, 3147.9021
5050000, 30.0000, 3187.9021
5050001, 60.0000, 3187.9021
5050002, 90.0000, 3187.9021
5050003, 120.0000, 3187.9021
5050004, 150.0000, 3187.9021
5051000, 30.0000, 3227.9021
5051001, 60.0000, 3227.9021
5051002, 90.0000, 3227.9021
5051003, 120.0000, 3227.9021
5051004, 150.0000, 3227.9021
5052000, 30.0000, 3267.9021
5052001, 60.0000, 3267.9021
5052002, 90.0000, 3267.9021
5052003, 120.0000, 3267.9021
5052004, 150.0000, 3267.9021
5053000, 30.0000, 3307.9021
5053001, 60.0000, 3307.9021
5053002, 90.0000, 3307.9021
5053003, 120.0000, 3307.9021
5053004, 150.0000, 3307.9021
5054000, 30.0000, 3347.9021
5054001, 60.0000, 3347.9021
5054002, 90.0000, 3347.9021
5054003, 120.0000, 3347.9021
5054004, 150.0000, 3347.9021
5055000, 30.0000, 3387.9021
5055001, 60.0000, 3387.9021
5055002, 90.0000, 3387.9021
5055003, 120.0000, 3387.9021
5055004, 150.0000, 3387.9021
5056000, 30.0000, 3427.9021
5056001, 60.0000, 3427.9021
5056002, 90.0000, 3427.9021
5056003, 120.0000, 3427.9021
5056004, 150.0000, 3427.9021
5057000, 30.0000, 3467.9021
5057001, 60.0000, 3467.9021
5057002, 90.0000, 3467.9021
5057003, 120.0000, 3467.9021
5057004, 150.0000, 3467.9021
5058000, 30.0000, 3507.9021
5058001, 60.0000, 3507.9021
5058002, 90.0000, 3507.9021
5058003, 120.0000, 3507.9021
5058004, 150.0000, 3507.9021
5059000, 30.0000, 3547.9021
5059001, 60.0000, 3547.9021
5059002, 90.0000, 3547.9021
5059003, 120.0000, 3547.9021
5059004, 150.0000, 3547.9021
5060000, 30.0000, 3550.0000
5060001, 60.0000, 3550.0000
5060002, 90.0000, 3550.0000
5060003, 120.0000, 3550.0000
5060004, 150.0000, 3550.0000
9999, 0.0, 3550.0000
*NSET, NSET=NREF
9999,
*ELEMENT, TYPE=CAX4R
2491, 5000000, 5000001, 5001001, 5001000
2492, 5000001, 5000002, 5001002, 5001001
2493, 5000002, 5000003, 5001003, 5001002
2494, 5000003, 5000004, 5001004, 5001003
2495, 5001000, 5001001, 5002001, 5002000
2496, 5001001, 5001002, 5002002, 5002001
2497, 5001002, 5001003, 5002003, 5002002
2498, 5001003, 5001004, 5002004, 5002003
2499, 5002000, 5002001, 5003001, 5003000
2500, 5002001, 5002002, 5003002, 5003001
2501, 5002002, 5002003, 5003003, 5003002
2502, 5002003, 5002004, 5003004, 5003003
2503, 5003000, 5003001, 5004001, 5004000
2504, 5003001, 5003002, 5004002, 5004001
2505, 5003002, 5003003, 5004003, 5004002
2506, 5003003, 5003004, 5004004, 5004003
2507, 5004000, 5004001, 5005001, 5005000
2508, 5004001, 5004002, 5005002, 5005001
2509, 5004002, 5004003, 5005003, 5005002
2510, 5004003, 5004004, 5005004, 5005003
2511, 5005000, 5005001, 5006001, 5006000
2512, 5005001, 5005002, 5006002, 5006001
2513, 5005002, 5005003, 5006003, 5006002
2514, 5005003, 5005004, 5006004, 5006003
2515, 5006000, 5006001, 5007001, 5007000
2516, 5006001, 5006002, 5007002, 5007001
2517, 5006002, 5006003, 5007003, 5007002
2518, 5006003, 5006004, 5007004, 5007003
2519, 5007000, 5007001, 5008001, 5008000
2520, 5007001, 5007002, 5008002, 5008001
2521, 5007002, 5007003, 5008003, 5008002
2522, 5007003, 5007004, 5008004, 5008003
2523, 5008000, 5008001, 5009001, 5009000
2524, 5008001, 5008002, 5009002, 5009001
2525, 5008002, 5008003, 5009003, 5009002
2526, 5008003, 5008004, 5009004, 5009003
2527, 5009000, 5009001, 5010001, 5010000
2528, 5009001, 5009002, 5010002, 5010001
2529, 5009002, 5009003, 5010003, 5010002
2530, 5009003, 5009004, 5010004, 5010003
2531, 5010000, 5010001, 5011001, 5011000
2532, 5010001, 5010002, 5011002, 5011001
2533, 5010002, 5010003, 5011003, 5011002
2534, 5010003, 5010004, 5011004, 5011003
2535, 5011000, 5011001, 5012001, 5012000
2536, 5011001, 5011002, 5012002, 5012001
2537, 5011002, 5011003, 5012003, 5012002
2538, 5011003, 5011004, 5012004, 5012003
2539, 5012000, 5012001, 5013001, 5013000
2540, 5012001, 5012002, 5013002, 5013001
2541, 5012002, 5012003, 5013003, 5013002
2542, 5012003, 5012004, 5013004, 5013003
2543, 5013000, 5013001, 5014001, 5014000
2544, 5013001, 5013002, 5014002, 5014001
2545, 5013002, 5013003, 5014003, 5014002
2546, 5013003, 5013004, 5014004, 5014003
2547, 5014000, 5014001, 5015001, 5015000
2548, 5014001, 5014002, 5015002, 5015001
2549, 5014002, 5014003, 5015003, 5015002
2550, 5014003, 5014004, 5015004, 5015003
2551, 5015000, 5015001, 5016001, 5016000
2552, 5015001, 5015002, 5016002, 5016001
2553, 5015002, 5015003, 5016003, 5016002
2554, 5015003, 5015004, 5016004, 5016003
2555, 5016000, 5016001, 5017001, 5017000
2556, 5016001, 5016002, 5017002, 5017001
2557, 5016002, 5016003, 5017003, 5017002
2558, 5016003, 5016004, 5017004, 5017003
2559, 5017000, 5017001, 5018001, 5018000
2560, 5017001, 5017002, 5018002, 5018001
2561, 5017002, 5017003, 5018003, 5018002
2562, 5017003, 5017004, 5018004, 5018003
2563, 5018000, 5018001, 5019001, 5019000
2564, 5018001, 5018002, 5019002, 5019001
2565, 5018002, 5018003, 5019003, 5019002
2566, 5018003, 5018004, 5019004, 5019003
2567, 5019000, 5019001, 5020001, 5020000
2568, 5019001, 5019002, 5020002, 5020001
2569, 5019002, 5019003, 5020003, 5020002
2570, 5019003, 5019004, 5020004, 5020003
2571, 5020000, 5020001, 5021001, 5021000
2572, 5020001, 5020002, 5021002, 5021001
2573, 5020002, 5020003, 5021003, 5021002
2574, 5020003, 5020004, 5021004, 5021003
2575, 5021000, 5021001, 5022001, 5022000
2576, 5021001, 5021002, 5022002, 5022001
2577, 5021002, 5021003, 5022003, 5022002
2578, 5021003, 5021004, 5022004, 5022003
2579, 5022000, 5022001, 5023001, 5023000
2580, 5022001, 5022002, 5023002, 5023001
2581, 5022002, 5022003, 5023003, 5023002
2582, 5022003, 5022004, 5023004, 5023003
2583, 5023000, 5023001, 5024001, 5024000
2584, 5023001, 5023002, 5024002, 5024001
2585, 5023002, 5023003, 5024003, 5024002
2586, 5023003, 5023004, 5024004, 5024003
2587, 5024000, 5024001, 5025001, 5025000
2588, 5024001, 5024002, 5025002, 5025001
2589, 5024002, 5024003, 5025003, 5025002
2590, 5024003, 5024004, 5025004, 5025003
2591, 5025000, 5025001, 5026001, 5026000
2592, 5025001, 5025002, 5026002, 5026001
2593, 5025002, 5025003, 5026003, 5026002
2594, 5025003, 5025004, 5026004, 5026003
2595, 5026000, 5026001, 5027001, 5027000
2596, 5026001, 5026002, 5027002, 5027001
2597, 5026002, 5026003, 5027003, 5027002
2598, 5026003, 5026004, 5027004, 5027003
2599, 5027000, 5027001, 5028001, 5028000
2600, 5027001, 5027002, 5028002, 5028001
2601, 5027002, 5027003, 5028003, 5028002
2602, 5027003, 5027004, 5028004, 5028003
2603, 5028000, 5028001, 5029001, 5029000
2604, 5028001, 5028002, 5029002, 5029001
2605, 5028002, 5028003, 5029003, 5029002
2606, 5028003, 5028004, 5029004, 5029003
2607, 5029000, 5029001, 5030001, 5030000
2608, 5029001, 5029002, 5030002, 5030001
2609, 5029002, 5029003, 5030003, 5030002
2610, 5029003, 5029004, 5030004, 5030003
2611, 5030000, 5030001, 5031001, 5031000
2612, 5030001, 5030002, 5031002, 5031001
2613, 5030002, 5030003, 5031003, 5031002
2614, 5030003, 5030004, 5031004, 5031003
2615, 5031000, 5031001, 5032001, 5032000
2616, 5031001, 5031002, 5032002, 5032001
2617, 5031002, 5031003, 5032003, 5032002
2618, 5031003, 5031004, 5032004, 5032003
2619, 5032000, 5032001, 5033001, 5033000
2620, 5032001, 5032002, 5033002, 5033001
2621, 5032002, 5032003, 5033003, 5033002
2622, 5032003, 5032004, 5033004, 5033003
2623, 5033000, 5033001, 5034001, 5034000
2624, 5033001, 5033002, 5034002, 5034001
2625, 5033002, 5033003, 5034003, 5034002
2626, 5033003, 5033004, 5034004, 5034003
2627, 5034000, 5034001, 5035001, 5035000
2628, 5034001, 5034002, 5035002, 5035001
2629, 5034002, 5034003, 5035003, 5035002
2630, 5034003, 5034004, 5035004, 5035003
2631, 5035000, 5035001, 5036001, 5036000
2632, 5035001, 5035002, 5036002, 5036001
2633, 5035002, 5035003, 5036003, 5036002
2634, 5035003, 5035004, 5036004, 5036003
2635, 5036000, 5036001, 5037001, 5037000
2636, 5036001, 5036002, 5037002, 5037001
2637, 5036002, 5036003, 5037003, 5037002
2638, 5036003, 5036004, 5037004, 5037003
2639, 5037000, 5037001, 5038001, 5038000
2640, 5037001, 5037002, 5038002, 5038001
2641, 5037002, 5037003, 5038003, 5038002
2642, 5037003, 5037004, 5038004, 5038003
2643, 5038000, 5038001, 5039001, 5039000
2644, 5038001, 5038002, 5039002, 5039001
2645, 5038002, 5038003, 5039003, 5039002
2646, 5038003, 5038004, 5039004, 5039003
2647, 5039000, 5039001, 5040001, 5040000
2648, 5039001, 5039002, 5040002, 5040001
2649, 5039002, 5039003, 5040003, 5040002
2650, 5039003, 5039004, 5040004, 5040003
2651, 5040000, 5040001, 5041001, 5041000
2652, 5040001, 5040002, 5041002, 5041001
2653, 5040002, 5040003, 5041003, 5041002
2654, 5040003, 5040004, 5041004, 5041003
2655, 5041000, 5041001, 5042001, 5042000
2656, 5041001, 5041002, 5042002, 5042001
2657, 5041002, 5041003, 5042003, 5042002
2658, 5041003, 5041004, 5042004, 5042003
2659, 5042000, 5042001, 5043001, 5043000
2660, 5042001, 5042002, 5043002, 5043001
2661, 5042002, 5042003, 5043003, 5043002
2662, 5042003, 5042004, 5043004, 5043003
2663, 5043000, 5043001, 5044001, 5044000
2664, 5043001, 5043002, 5044002, 5044001
2665, 5043002, 5043003, 5044003, 5044002
2666, 5043003, 5043004, 5044004, 5044003
2667, 5044000, 5044001, 5045001, 5045000
2668, 5044001, 5044002, 5045002, 5045001
2669, 5044002, 5044003, 5045003, 5045002
2670, 5044003, 5044004, 5045004, 5045003
2671, 5045000, 5045001, 5046001, 5046000
2672, 5045001, 5045002, 5046002, 5046001
2673, 5045002, 5045003, 5046003, 5046002
2674, 5045003, 5045004, 5046004, 5046003
2675, 5046000, 5046001, 5047001, 5047000
2676, 5046001, 5046002, 5047002, 5047001
2677, 5046002, 5046003, 5047003, 5047002
2678, 5046003, 5046004, 5047004, 5047003
2679, 5047000, 5047001, 5048001, 5048000
2680, 5047001, 5047002, 5048002, 5048001
2681, 5047002, 5047003, 5048003, 5048002
2682, 5047003, 5047004, 5048004, 5048003
2683, 5048000, 5048001, 5049001, 5049000
2684, 5048001, 5048002, 5049002, 5049001
2685, 5048002, 5048003, 5049003, 5049002
2686, 5048003, 5048004, 5049004, 5049003
2687, 5049000, 5049001, 5050001, 5050000
2688, 5049001, 5049002, 5050002, 5050001
2689, 5049002, 5049003, 5050003, 5050002
2690, 5049003, 5049004, 5050004, 5050003
2691, 5050000, 5050001, 5051001, 5051000
2692, 5050001, 5050002, 5051002, 5051001
2693, 5050002, 5050003, 5051003, 5051002
2694, 5050003, 5050004, 5051004, 5051003
2695, 5051000, 5051001, 5052001, 5052000
2696, 5051001, 5051002, 5052002, 5052001
2697, 5051002, 5051003, 5052003, 5052002
2698, 5051003, 5051004, 5052004, 5052003
2699, 5052000, 5052001, 5053001, 5053000
2700, 5052001, 5052002, 5053002, 5053001
2701, 5052002, 5052003, 5053003, 5053002
2702, 5052003, 5052004, 5053004, 5053003
2703, 5053000, 5053001, 5054001, 5054000
2704, 5053001, 5053002, 5054002, 5054001
2705, 5053002, 5053003, 5054003, 5054002
2706, 5053003, 5053004, 5054004, 5054003
2707, 5054000, 5054001, 5055001, 5055000
2708, 5054001, 5054002, 5055002, 5055001
2709, 5054002, 5054003, 5055003, 5055002
2710, 5054003, 5054004, 5055004, 5055003
2711, 5055000, 5055001, 5056001, 5056000
2712, 5055001, 5055002, 5056002, 5056001
2713, 5055002, 5055003, 5056003, 5056002
2714, 5055003, 5055004, 5056004, 5056003
2715, 5056000, 5056001, 5057001, 5057000
2716, 5056001, 5056002, 5057002, 5057001
2717, 5056002, 5056003, 5057003, 5057002
2718, 5056003, 5056004, 5057004, 5057003
2719, 5057000, 5057001, 5058001, 5058000
2720, 5057001, 5057002, 5058002, 5058001
2721, 5057002, 5057003, 5058003, 5058002
2722, 5057003, 5057004, 5058004, 5058003
2723, 5058000, 5058001, 5059001, 5059000
2724, 5058001, 5058002, 5059002, 5059001
2725, 5058002, 5058003, 5059003, 5059002
2726, 5058003, 5058004, 5059004, 5059003
2727, 5059000, 5059001, 5060001, 5060000
2728, 5059001, 5059002, 5060002, 5060001
2729, 5059002, 5059003, 5060003, 5060002
2730, 5059003, 5059004, 5060004, 5060003
*ELSET, ELSET=NEEDLE_EL, GENERATE
2491, 2730, 1
*SURFACE, TYPE=ELEMENT, NAME=NEEDLE
NEEDLE_EL,
*NSET, NSET=NDLTOP
5060000, 5060001, 5060002, 5060003, 5060004
*MATERIAL, NAME=NEEDLE_MAT
*DENSITY
7.9e-15,
*ELASTIC
2e+05, 0.3
*SOLID SECTION, ELSET=NEEDLE_EL, MATERIAL=NEEDLE_MAT
*MATERIAL, NAME=MAT_STRATUM
*DENSITY
1.2e-15,
*USER MATERIAL, CONSTANTS=4
1.0, 0.02, 1.2, 1.5
*DEPVAR, DELETE=1
4
1, DELFLAG, deletion flag
2, LAMMAX, max principal stretch
3, DAMAGE, damage variable
4, JVOL, relative volume
*MATERIAL, NAME=MAT_EPIDERMIS
*DENSITY
1.1e-15,
*USER MATERIAL, CONSTANTS=4
0.1, 0.1, 1.4, 1.9
*DEPVAR, DELETE=1
4
1, DELFLAG, deletion flag
2, LAMMAX, max principal stretch
3, DAMAGE, damage variable
4, JVOL, relative volume
*MATERIAL, NAME=MAT_DERMIS
*DENSITY
1.1e-15,
*USER MATERIAL, CONSTANTS=4
0.02, 1.0, 1.6, 2.5
*DEPVAR, DELETE=1
4
1, DELFLAG, deletion flag
2, LAMMAX, max principal stretch
3, DAMAGE, damage variable
4, JVOL, relative volume
*SOLID SECTION, ELSET=STRATUM, MATERIAL=MAT_STRATUM
*SOLID SECTION, ELSET=EPIDERMIS, MATERIAL=MAT_EPIDERMIS
*SOLID SECTION, ELSET=DERMIS, MATERIAL=MAT_DERMIS
*KINEMATIC COUPLING, REF NODE=9999
NDLTOP, 1, 2
*SURFACE INTERACTION, NAME=IPROP
*FRICTION
0.1,
*SURFACE BEHAVIOR, PRESSURE-OVERCLOSURE=HARD
*BOUNDARY
NBOT, 2, 2
NAXIS, 1, 1
NRIGHT, 1, 1
NREF, 1, 1
NREF, 6, 6
*AMPLITUDE, NAME=PUSH, DEFINITION=SMOOTH STEP
0.0, 0.0, 0.03, 1.0
*STEP, NAME=PENETRATION
*DYNAMIC, EXPLICIT
, 0.03
*FIXED MASS SCALING, DT=2.0e-7, TYPE=BELOW MIN
*BOUNDARY, AMPLITUDE=PUSH
NREF, 2, 2, -1200.0
*CONTACT
*CONTACT INCLUSIONS, ALL EXTERIOR
*CONTACT INCLUSIONS
NEEDLE, SKIN_SURF
*CONTACT PROPERTY ASSIGNMENT
 ,  , IPROP
*OUTPUT, FIELD, NUMBER INTERVAL=30
*ELEMENT OUTPUT, ELSET=SKIN_ALL
S, LE, SDV, STATUS
*ELEMENT OUTPUT, ELSET=NEEDLE_EL
S, LE
*NODE OUTPUT
U, V
*OUTPUT, HISTORY, TIME INTERVAL=1.0e-4
*NODE OUTPUT, NSET=NREF
U2, V2, RF2
*ENERGY OUTPUT
ALLIE, ALLKE, ALLSE, ALLWK
*END STEP
