*HEADING
[15] Bifurcated skin: core(damage+deletion) / outer(no deletion)
needle deformable ; r=25 um cohesive COHAX4 ; um,uN,MPa,s ; user=vumat
*NODE
1, 0.0000, 0.0000
2, 2.5000, 0.0000
3, 5.0000, 0.0000
4, 7.5000, 0.0000
5, 10.0000, 0.0000
6, 12.5000, 0.0000
7, 15.0000, 0.0000
8, 17.5000, 0.0000
9, 20.0000, 0.0000
10, 22.5000, 0.0000
11, 25.0000, 0.0000
10001, 0.0000, 130.8745
10002, 2.5000, 130.8745
10003, 5.0000, 130.8745
10004, 7.5000, 130.8745
10005, 10.0000, 130.8745
10006, 12.5000, 130.8745
10007, 15.0000, 130.8745
10008, 17.5000, 130.8745
10009, 20.0000, 130.8745
10010, 22.5000, 130.8745
10011, 25.0000, 130.8745
20001, 0.0000, 433.7496
20002, 2.5000, 433.7496
20003, 5.0000, 433.7496
20004, 7.5000, 433.7496
20005, 10.0000, 433.7496
20006, 12.5000, 433.7496
20007, 15.0000, 433.7496
20008, 17.5000, 433.7496
20009, 20.0000, 433.7496
20010, 22.5000, 433.7496
20011, 25.0000, 433.7496
30001, 0.0000, 666.7305
30002, 2.5000, 666.7305
30003, 5.0000, 666.7305
30004, 7.5000, 666.7305
30005, 10.0000, 666.7305
30006, 12.5000, 666.7305
30007, 15.0000, 666.7305
30008, 17.5000, 666.7305
30009, 20.0000, 666.7305
30010, 22.5000, 666.7305
30011, 25.0000, 666.7305
40001, 0.0000, 845.9465
40002, 2.5000, 845.9465
40003, 5.0000, 845.9465
40004, 7.5000, 845.9465
40005, 10.0000, 845.9465
40006, 12.5000, 845.9465
40007, 15.0000, 845.9465
40008, 17.5000, 845.9465
40009, 20.0000, 845.9465
40010, 22.5000, 845.9465
40011, 25.0000, 845.9465
50001, 0.0000, 983.8050
50002, 2.5000, 983.8050
50003, 5.0000, 983.8050
50004, 7.5000, 983.8050
50005, 10.0000, 983.8050
50006, 12.5000, 983.8050
50007, 15.0000, 983.8050
50008, 17.5000, 983.8050
50009, 20.0000, 983.8050
50010, 22.5000, 983.8050
50011, 25.0000, 983.8050
60001, 0.0000, 1089.8500
60002, 2.5000, 1089.8500
60003, 5.0000, 1089.8500
60004, 7.5000, 1089.8500
60005, 10.0000, 1089.8500
60006, 12.5000, 1089.8500
60007, 15.0000, 1089.8500
60008, 17.5000, 1089.8500
60009, 20.0000, 1089.8500
60010, 22.5000, 1089.8500
60011, 25.0000, 1089.8500
70001, 0.0000, 1171.4231
70002, 2.5000, 1171.4231
70003, 5.0000, 1171.4231
70004, 7.5000, 1171.4231
70005, 10.0000, 1171.4231
70006, 12.5000, 1171.4231
70007, 15.0000, 1171.4231
70008, 17.5000, 1171.4231
70009, 20.0000, 1171.4231
70010, 22.5000, 1171.4231
70011, 25.0000, 1171.4231
80001, 0.0000, 1234.1716
80002, 2.5000, 1234.1716
80003, 5.0000, 1234.1716
80004, 7.5000, 1234.1716
80005, 10.0000, 1234.1716
80006, 12.5000, 1234.1716
80007, 15.0000, 1234.1716
80008, 17.5000, 1234.1716
80009, 20.0000, 1234.1716
80010, 22.5000, 1234.1716
80011, 25.0000, 1234.1716
90001, 0.0000, 1282.4397
90002, 2.5000, 1282.4397
90003, 5.0000, 1282.4397
90004, 7.5000, 1282.4397
90005, 10.0000, 1282.4397
90006, 12.5000, 1282.4397
90007, 15.0000, 1282.4397
90008, 17.5000, 1282.4397
90009, 20.0000, 1282.4397
90010, 22.5000, 1282.4397
90011, 25.0000, 1282.4397
100001, 0.0000, 1319.5690
100002, 2.5000, 1319.5690
100003, 5.0000, 1319.5690
100004, 7.5000, 1319.5690
100005, 10.0000, 1319.5690
100006, 12.5000, 1319.5690
100007, 15.0000, 1319.5690
100008, 17.5000, 1319.5690
100009, 20.0000, 1319.5690
100010, 22.5000, 1319.5690
100011, 25.0000, 1319.5690
110001, 0.0000, 1348.1300
110002, 2.5000, 1348.1300
110003, 5.0000, 1348.1300
110004, 7.5000, 1348.1300
110005, 10.0000, 1348.1300
110006, 12.5000, 1348.1300
110007, 15.0000, 1348.1300
110008, 17.5000, 1348.1300
110009, 20.0000, 1348.1300
110010, 22.5000, 1348.1300
110011, 25.0000, 1348.1300
120001, 0.0000, 1370.1000
120002, 2.5000, 1370.1000
120003, 5.0000, 1370.1000
120004, 7.5000, 1370.1000
120005, 10.0000, 1370.1000
120006, 12.5000, 1370.1000
120007, 15.0000, 1370.1000
120008, 17.5000, 1370.1000
120009, 20.0000, 1370.1000
120010, 22.5000, 1370.1000
120011, 25.0000, 1370.1000
130001, 0.0000, 1387.0000
130002, 2.5000, 1387.0000
130003, 5.0000, 1387.0000
130004, 7.5000, 1387.0000
130005, 10.0000, 1387.0000
130006, 12.5000, 1387.0000
130007, 15.0000, 1387.0000
130008, 17.5000, 1387.0000
130009, 20.0000, 1387.0000
130010, 22.5000, 1387.0000
130011, 25.0000, 1387.0000
140001, 0.0000, 1400.0000
140002, 2.5000, 1400.0000
140003, 5.0000, 1400.0000
140004, 7.5000, 1400.0000
140005, 10.0000, 1400.0000
140006, 12.5000, 1400.0000
140007, 15.0000, 1400.0000
140008, 17.5000, 1400.0000
140009, 20.0000, 1400.0000
140010, 22.5000, 1400.0000
140011, 25.0000, 1400.0000
150001, 0.0000, 1407.0000
150002, 2.5000, 1407.0000
150003, 5.0000, 1407.0000
150004, 7.5000, 1407.0000
150005, 10.0000, 1407.0000
150006, 12.5000, 1407.0000
150007, 15.0000, 1407.0000
150008, 17.5000, 1407.0000
150009, 20.0000, 1407.0000
150010, 22.5000, 1407.0000
150011, 25.0000, 1407.0000
160001, 0.0000, 1414.0000
160002, 2.5000, 1414.0000
160003, 5.0000, 1414.0000
160004, 7.5000, 1414.0000
160005, 10.0000, 1414.0000
160006, 12.5000, 1414.0000
160007, 15.0000, 1414.0000
160008, 17.5000, 1414.0000
160009, 20.0000, 1414.0000
160010, 22.5000, 1414.0000
160011, 25.0000, 1414.0000
170001, 0.0000, 1421.0000
170002, 2.5000, 1421.0000
170003, 5.0000, 1421.0000
170004, 7.5000, 1421.0000
170005, 10.0000, 1421.0000
170006, 12.5000, 1421.0000
170007, 15.0000, 1421.0000
170008, 17.5000, 1421.0000
170009, 20.0000, 1421.0000
170010, 22.5000, 1421.0000
170011, 25.0000, 1421.0000
180001, 0.0000, 1428.0000
180002, 2.5000, 1428.0000
180003, 5.0000, 1428.0000
180004, 7.5000, 1428.0000
180005, 10.0000, 1428.0000
180006, 12.5000, 1428.0000
180007, 15.0000, 1428.0000
180008, 17.5000, 1428.0000
180009, 20.0000, 1428.0000
180010, 22.5000, 1428.0000
180011, 25.0000, 1428.0000
190001, 0.0000, 1435.0000
190002, 2.5000, 1435.0000
190003, 5.0000, 1435.0000
190004, 7.5000, 1435.0000
190005, 10.0000, 1435.0000
190006, 12.5000, 1435.0000
190007, 15.0000, 1435.0000
190008, 17.5000, 1435.0000
190009, 20.0000, 1435.0000
190010, 22.5000, 1435.0000
190011, 25.0000, 1435.0000
200001, 0.0000, 1442.0000
200002, 2.5000, 1442.0000
200003, 5.0000, 1442.0000
200004, 7.5000, 1442.0000
200005, 10.0000, 1442.0000
200006, 12.5000, 1442.0000
200007, 15.0000, 1442.0000
200008, 17.5000, 1442.0000
200009, 20.0000, 1442.0000
200010, 22.5000, 1442.0000
200011, 25.0000, 1442.0000
210001, 0.0000, 1449.0000
210002, 2.5000, 1449.0000
210003, 5.0000, 1449.0000
210004, 7.5000, 1449.0000
210005, 10.0000, 1449.0000
210006, 12.5000, 1449.0000
210007, 15.0000, 1449.0000
210008, 17.5000, 1449.0000
210009, 20.0000, 1449.0000
210010, 22.5000, 1449.0000
210011, 25.0000, 1449.0000
220001, 0.0000, 1456.0000
220002, 2.5000, 1456.0000
220003, 5.0000, 1456.0000
220004, 7.5000, 1456.0000
220005, 10.0000, 1456.0000
220006, 12.5000, 1456.0000
220007, 15.0000, 1456.0000
220008, 17.5000, 1456.0000
220009, 20.0000, 1456.0000
220010, 22.5000, 1456.0000
220011, 25.0000, 1456.0000
230001, 0.0000, 1463.0000
230002, 2.5000, 1463.0000
230003, 5.0000, 1463.0000
230004, 7.5000, 1463.0000
230005, 10.0000, 1463.0000
230006, 12.5000, 1463.0000
230007, 15.0000, 1463.0000
230008, 17.5000, 1463.0000
230009, 20.0000, 1463.0000
230010, 22.5000, 1463.0000
230011, 25.0000, 1463.0000
240001, 0.0000, 1470.0000
240002, 2.5000, 1470.0000
240003, 5.0000, 1470.0000
240004, 7.5000, 1470.0000
240005, 10.0000, 1470.0000
240006, 12.5000, 1470.0000
240007, 15.0000, 1470.0000
240008, 17.5000, 1470.0000
240009, 20.0000, 1470.0000
240010, 22.5000, 1470.0000
240011, 25.0000, 1470.0000
250001, 0.0000, 1477.0000
250002, 2.5000, 1477.0000
250003, 5.0000, 1477.0000
250004, 7.5000, 1477.0000
250005, 10.0000, 1477.0000
250006, 12.5000, 1477.0000
250007, 15.0000, 1477.0000
250008, 17.5000, 1477.0000
250009, 20.0000, 1477.0000
250010, 22.5000, 1477.0000
250011, 25.0000, 1477.0000
260001, 0.0000, 1480.0000
260002, 2.5000, 1480.0000
260003, 5.0000, 1480.0000
260004, 7.5000, 1480.0000
260005, 10.0000, 1480.0000
260006, 12.5000, 1480.0000
260007, 15.0000, 1480.0000
260008, 17.5000, 1480.0000
260009, 20.0000, 1480.0000
260010, 22.5000, 1480.0000
260011, 25.0000, 1480.0000
270001, 0.0000, 1481.7500
270002, 2.5000, 1481.7500
270003, 5.0000, 1481.7500
270004, 7.5000, 1481.7500
270005, 10.0000, 1481.7500
270006, 12.5000, 1481.7500
270007, 15.0000, 1481.7500
270008, 17.5000, 1481.7500
270009, 20.0000, 1481.7500
270010, 22.5000, 1481.7500
270011, 25.0000, 1481.7500
280001, 0.0000, 1483.5000
280002, 2.5000, 1483.5000
280003, 5.0000, 1483.5000
280004, 7.5000, 1483.5000
280005, 10.0000, 1483.5000
280006, 12.5000, 1483.5000
280007, 15.0000, 1483.5000
280008, 17.5000, 1483.5000
280009, 20.0000, 1483.5000
280010, 22.5000, 1483.5000
280011, 25.0000, 1483.5000
290001, 0.0000, 1485.2500
290002, 2.5000, 1485.2500
290003, 5.0000, 1485.2500
290004, 7.5000, 1485.2500
290005, 10.0000, 1485.2500
290006, 12.5000, 1485.2500
290007, 15.0000, 1485.2500
290008, 17.5000, 1485.2500
290009, 20.0000, 1485.2500
290010, 22.5000, 1485.2500
290011, 25.0000, 1485.2500
300001, 0.0000, 1487.0000
300002, 2.5000, 1487.0000
300003, 5.0000, 1487.0000
300004, 7.5000, 1487.0000
300005, 10.0000, 1487.0000
300006, 12.5000, 1487.0000
300007, 15.0000, 1487.0000
300008, 17.5000, 1487.0000
300009, 20.0000, 1487.0000
300010, 22.5000, 1487.0000
300011, 25.0000, 1487.0000
310001, 0.0000, 1488.7500
310002, 2.5000, 1488.7500
310003, 5.0000, 1488.7500
310004, 7.5000, 1488.7500
310005, 10.0000, 1488.7500
310006, 12.5000, 1488.7500
310007, 15.0000, 1488.7500
310008, 17.5000, 1488.7500
310009, 20.0000, 1488.7500
310010, 22.5000, 1488.7500
310011, 25.0000, 1488.7500
320001, 0.0000, 1490.5000
320002, 2.5000, 1490.5000
320003, 5.0000, 1490.5000
320004, 7.5000, 1490.5000
320005, 10.0000, 1490.5000
320006, 12.5000, 1490.5000
320007, 15.0000, 1490.5000
320008, 17.5000, 1490.5000
320009, 20.0000, 1490.5000
320010, 22.5000, 1490.5000
320011, 25.0000, 1490.5000
330001, 0.0000, 1492.2500
330002, 2.5000, 1492.2500
330003, 5.0000, 1492.2500
330004, 7.5000, 1492.2500
330005, 10.0000, 1492.2500
330006, 12.5000, 1492.2500
330007, 15.0000, 1492.2500
330008, 17.5000, 1492.2500
330009, 20.0000, 1492.2500
330010, 22.5000, 1492.2500
330011, 25.0000, 1492.2500
340001, 0.0000, 1494.0000
340002, 2.5000, 1494.0000
340003, 5.0000, 1494.0000
340004, 7.5000, 1494.0000
340005, 10.0000, 1494.0000
340006, 12.5000, 1494.0000
340007, 15.0000, 1494.0000
340008, 17.5000, 1494.0000
340009, 20.0000, 1494.0000
340010, 22.5000, 1494.0000
340011, 25.0000, 1494.0000
350001, 0.0000, 1495.7500
350002, 2.5000, 1495.7500
350003, 5.0000, 1495.7500
350004, 7.5000, 1495.7500
350005, 10.0000, 1495.7500
350006, 12.5000, 1495.7500
350007, 15.0000, 1495.7500
350008, 17.5000, 1495.7500
350009, 20.0000, 1495.7500
350010, 22.5000, 1495.7500
350011, 25.0000, 1495.7500
360001, 0.0000, 1497.5000
360002, 2.5000, 1497.5000
360003, 5.0000, 1497.5000
360004, 7.5000, 1497.5000
360005, 10.0000, 1497.5000
360006, 12.5000, 1497.5000
360007, 15.0000, 1497.5000
360008, 17.5000, 1497.5000
360009, 20.0000, 1497.5000
360010, 22.5000, 1497.5000
360011, 25.0000, 1497.5000
370001, 0.0000, 1499.2500
370002, 2.5000, 1499.2500
370003, 5.0000, 1499.2500
370004, 7.5000, 1499.2500
370005, 10.0000, 1499.2500
370006, 12.5000, 1499.2500
370007, 15.0000, 1499.2500
370008, 17.5000, 1499.2500
370009, 20.0000, 1499.2500
370010, 22.5000, 1499.2500
370011, 25.0000, 1499.2500
380001, 0.0000, 1500.0000
380002, 2.5000, 1500.0000
380003, 5.0000, 1500.0000
380004, 7.5000, 1500.0000
380005, 10.0000, 1500.0000
380006, 12.5000, 1500.0000
380007, 15.0000, 1500.0000
380008, 17.5000, 1500.0000
380009, 20.0000, 1500.0000
380010, 22.5000, 1500.0000
380011, 25.0000, 1500.0000
5000000, 25.0000, 0.0000
5000001, 28.5000, 0.0000
5000002, 32.7000, 0.0000
5000003, 37.7400, 0.0000
5000004, 43.7880, 0.0000
5000005, 51.0456, 0.0000
5000006, 59.7547, 0.0000
5000007, 70.2057, 0.0000
5000008, 82.7468, 0.0000
5000009, 97.7962, 0.0000
5000010, 115.8554, 0.0000
5000011, 137.5265, 0.0000
5000012, 163.5318, 0.0000
5000013, 194.7381, 0.0000
5000014, 232.1857, 0.0000
5000015, 277.1229, 0.0000
5000016, 331.0475, 0.0000
5000017, 395.7569, 0.0000
5000018, 473.4083, 0.0000
5000019, 566.5900, 0.0000
5000020, 678.4080, 0.0000
5000021, 812.5896, 0.0000
5000022, 973.6075, 0.0000
5000023, 1166.8290, 0.0000
5000024, 1398.6948, 0.0000
5000025, 1676.9338, 0.0000
5000026, 2000.0000, 0.0000
5010000, 25.0000, 130.8745
5010001, 28.5000, 130.8745
5010002, 32.7000, 130.8745
5010003, 37.7400, 130.8745
5010004, 43.7880, 130.8745
5010005, 51.0456, 130.8745
5010006, 59.7547, 130.8745
5010007, 70.2057, 130.8745
5010008, 82.7468, 130.8745
5010009, 97.7962, 130.8745
5010010, 115.8554, 130.8745
5010011, 137.5265, 130.8745
5010012, 163.5318, 130.8745
5010013, 194.7381, 130.8745
5010014, 232.1857, 130.8745
5010015, 277.1229, 130.8745
5010016, 331.0475, 130.8745
5010017, 395.7569, 130.8745
5010018, 473.4083, 130.8745
5010019, 566.5900, 130.8745
5010020, 678.4080, 130.8745
5010021, 812.5896, 130.8745
5010022, 973.6075, 130.8745
5010023, 1166.8290, 130.8745
5010024, 1398.6948, 130.8745
5010025, 1676.9338, 130.8745
5010026, 2000.0000, 130.8745
5020000, 25.0000, 433.7496
5020001, 28.5000, 433.7496
5020002, 32.7000, 433.7496
5020003, 37.7400, 433.7496
5020004, 43.7880, 433.7496
5020005, 51.0456, 433.7496
5020006, 59.7547, 433.7496
5020007, 70.2057, 433.7496
5020008, 82.7468, 433.7496
5020009, 97.7962, 433.7496
5020010, 115.8554, 433.7496
5020011, 137.5265, 433.7496
5020012, 163.5318, 433.7496
5020013, 194.7381, 433.7496
5020014, 232.1857, 433.7496
5020015, 277.1229, 433.7496
5020016, 331.0475, 433.7496
5020017, 395.7569, 433.7496
5020018, 473.4083, 433.7496
5020019, 566.5900, 433.7496
5020020, 678.4080, 433.7496
5020021, 812.5896, 433.7496
5020022, 973.6075, 433.7496
5020023, 1166.8290, 433.7496
5020024, 1398.6948, 433.7496
5020025, 1676.9338, 433.7496
5020026, 2000.0000, 433.7496
5030000, 25.0000, 666.7305
5030001, 28.5000, 666.7305
5030002, 32.7000, 666.7305
5030003, 37.7400, 666.7305
5030004, 43.7880, 666.7305
5030005, 51.0456, 666.7305
5030006, 59.7547, 666.7305
5030007, 70.2057, 666.7305
5030008, 82.7468, 666.7305
5030009, 97.7962, 666.7305
5030010, 115.8554, 666.7305
5030011, 137.5265, 666.7305
5030012, 163.5318, 666.7305
5030013, 194.7381, 666.7305
5030014, 232.1857, 666.7305
5030015, 277.1229, 666.7305
5030016, 331.0475, 666.7305
5030017, 395.7569, 666.7305
5030018, 473.4083, 666.7305
5030019, 566.5900, 666.7305
5030020, 678.4080, 666.7305
5030021, 812.5896, 666.7305
5030022, 973.6075, 666.7305
5030023, 1166.8290, 666.7305
5030024, 1398.6948, 666.7305
5030025, 1676.9338, 666.7305
5030026, 2000.0000, 666.7305
5040000, 25.0000, 845.9465
5040001, 28.5000, 845.9465
5040002, 32.7000, 845.9465
5040003, 37.7400, 845.9465
5040004, 43.7880, 845.9465
5040005, 51.0456, 845.9465
5040006, 59.7547, 845.9465
5040007, 70.2057, 845.9465
5040008, 82.7468, 845.9465
5040009, 97.7962, 845.9465
5040010, 115.8554, 845.9465
5040011, 137.5265, 845.9465
5040012, 163.5318, 845.9465
5040013, 194.7381, 845.9465
5040014, 232.1857, 845.9465
5040015, 277.1229, 845.9465
5040016, 331.0475, 845.9465
5040017, 395.7569, 845.9465
5040018, 473.4083, 845.9465
5040019, 566.5900, 845.9465
5040020, 678.4080, 845.9465
5040021, 812.5896, 845.9465
5040022, 973.6075, 845.9465
5040023, 1166.8290, 845.9465
5040024, 1398.6948, 845.9465
5040025, 1676.9338, 845.9465
5040026, 2000.0000, 845.9465
5050000, 25.0000, 983.8050
5050001, 28.5000, 983.8050
5050002, 32.7000, 983.8050
5050003, 37.7400, 983.8050
5050004, 43.7880, 983.8050
5050005, 51.0456, 983.8050
5050006, 59.7547, 983.8050
5050007, 70.2057, 983.8050
5050008, 82.7468, 983.8050
5050009, 97.7962, 983.8050
5050010, 115.8554, 983.8050
5050011, 137.5265, 983.8050
5050012, 163.5318, 983.8050
5050013, 194.7381, 983.8050
5050014, 232.1857, 983.8050
5050015, 277.1229, 983.8050
5050016, 331.0475, 983.8050
5050017, 395.7569, 983.8050
5050018, 473.4083, 983.8050
5050019, 566.5900, 983.8050
5050020, 678.4080, 983.8050
5050021, 812.5896, 983.8050
5050022, 973.6075, 983.8050
5050023, 1166.8290, 983.8050
5050024, 1398.6948, 983.8050
5050025, 1676.9338, 983.8050
5050026, 2000.0000, 983.8050
5060000, 25.0000, 1089.8500
5060001, 28.5000, 1089.8500
5060002, 32.7000, 1089.8500
5060003, 37.7400, 1089.8500
5060004, 43.7880, 1089.8500
5060005, 51.0456, 1089.8500
5060006, 59.7547, 1089.8500
5060007, 70.2057, 1089.8500
5060008, 82.7468, 1089.8500
5060009, 97.7962, 1089.8500
5060010, 115.8554, 1089.8500
5060011, 137.5265, 1089.8500
5060012, 163.5318, 1089.8500
5060013, 194.7381, 1089.8500
5060014, 232.1857, 1089.8500
5060015, 277.1229, 1089.8500
5060016, 331.0475, 1089.8500
5060017, 395.7569, 1089.8500
5060018, 473.4083, 1089.8500
5060019, 566.5900, 1089.8500
5060020, 678.4080, 1089.8500
5060021, 812.5896, 1089.8500
5060022, 973.6075, 1089.8500
5060023, 1166.8290, 1089.8500
5060024, 1398.6948, 1089.8500
5060025, 1676.9338, 1089.8500
5060026, 2000.0000, 1089.8500
5070000, 25.0000, 1171.4231
5070001, 28.5000, 1171.4231
5070002, 32.7000, 1171.4231
5070003, 37.7400, 1171.4231
5070004, 43.7880, 1171.4231
5070005, 51.0456, 1171.4231
5070006, 59.7547, 1171.4231
5070007, 70.2057, 1171.4231
5070008, 82.7468, 1171.4231
5070009, 97.7962, 1171.4231
5070010, 115.8554, 1171.4231
5070011, 137.5265, 1171.4231
5070012, 163.5318, 1171.4231
5070013, 194.7381, 1171.4231
5070014, 232.1857, 1171.4231
5070015, 277.1229, 1171.4231
5070016, 331.0475, 1171.4231
5070017, 395.7569, 1171.4231
5070018, 473.4083, 1171.4231
5070019, 566.5900, 1171.4231
5070020, 678.4080, 1171.4231
5070021, 812.5896, 1171.4231
5070022, 973.6075, 1171.4231
5070023, 1166.8290, 1171.4231
5070024, 1398.6948, 1171.4231
5070025, 1676.9338, 1171.4231
5070026, 2000.0000, 1171.4231
5080000, 25.0000, 1234.1716
5080001, 28.5000, 1234.1716
5080002, 32.7000, 1234.1716
5080003, 37.7400, 1234.1716
5080004, 43.7880, 1234.1716
5080005, 51.0456, 1234.1716
5080006, 59.7547, 1234.1716
5080007, 70.2057, 1234.1716
5080008, 82.7468, 1234.1716
5080009, 97.7962, 1234.1716
5080010, 115.8554, 1234.1716
5080011, 137.5265, 1234.1716
5080012, 163.5318, 1234.1716
5080013, 194.7381, 1234.1716
5080014, 232.1857, 1234.1716
5080015, 277.1229, 1234.1716
5080016, 331.0475, 1234.1716
5080017, 395.7569, 1234.1716
5080018, 473.4083, 1234.1716
5080019, 566.5900, 1234.1716
5080020, 678.4080, 1234.1716
5080021, 812.5896, 1234.1716
5080022, 973.6075, 1234.1716
5080023, 1166.8290, 1234.1716
5080024, 1398.6948, 1234.1716
5080025, 1676.9338, 1234.1716
5080026, 2000.0000, 1234.1716
5090000, 25.0000, 1282.4397
5090001, 28.5000, 1282.4397
5090002, 32.7000, 1282.4397
5090003, 37.7400, 1282.4397
5090004, 43.7880, 1282.4397
5090005, 51.0456, 1282.4397
5090006, 59.7547, 1282.4397
5090007, 70.2057, 1282.4397
5090008, 82.7468, 1282.4397
5090009, 97.7962, 1282.4397
5090010, 115.8554, 1282.4397
5090011, 137.5265, 1282.4397
5090012, 163.5318, 1282.4397
5090013, 194.7381, 1282.4397
5090014, 232.1857, 1282.4397
5090015, 277.1229, 1282.4397
5090016, 331.0475, 1282.4397
5090017, 395.7569, 1282.4397
5090018, 473.4083, 1282.4397
5090019, 566.5900, 1282.4397
5090020, 678.4080, 1282.4397
5090021, 812.5896, 1282.4397
5090022, 973.6075, 1282.4397
5090023, 1166.8290, 1282.4397
5090024, 1398.6948, 1282.4397
5090025, 1676.9338, 1282.4397
5090026, 2000.0000, 1282.4397
5100000, 25.0000, 1319.5690
5100001, 28.5000, 1319.5690
5100002, 32.7000, 1319.5690
5100003, 37.7400, 1319.5690
5100004, 43.7880, 1319.5690
5100005, 51.0456, 1319.5690
5100006, 59.7547, 1319.5690
5100007, 70.2057, 1319.5690
5100008, 82.7468, 1319.5690
5100009, 97.7962, 1319.5690
5100010, 115.8554, 1319.5690
5100011, 137.5265, 1319.5690
5100012, 163.5318, 1319.5690
5100013, 194.7381, 1319.5690
5100014, 232.1857, 1319.5690
5100015, 277.1229, 1319.5690
5100016, 331.0475, 1319.5690
5100017, 395.7569, 1319.5690
5100018, 473.4083, 1319.5690
5100019, 566.5900, 1319.5690
5100020, 678.4080, 1319.5690
5100021, 812.5896, 1319.5690
5100022, 973.6075, 1319.5690
5100023, 1166.8290, 1319.5690
5100024, 1398.6948, 1319.5690
5100025, 1676.9338, 1319.5690
5100026, 2000.0000, 1319.5690
5110000, 25.0000, 1348.1300
5110001, 28.5000, 1348.1300
5110002, 32.7000, 1348.1300
5110003, 37.7400, 1348.1300
5110004, 43.7880, 1348.1300
5110005, 51.0456, 1348.1300
5110006, 59.7547, 1348.1300
5110007, 70.2057, 1348.1300
5110008, 82.7468, 1348.1300
5110009, 97.7962, 1348.1300
5110010, 115.8554, 1348.1300
5110011, 137.5265, 1348.1300
5110012, 163.5318, 1348.1300
5110013, 194.7381, 1348.1300
5110014, 232.1857, 1348.1300
5110015, 277.1229, 1348.1300
5110016, 331.0475, 1348.1300
5110017, 395.7569, 1348.1300
5110018, 473.4083, 1348.1300
5110019, 566.5900, 1348.1300
5110020, 678.4080, 1348.1300
5110021, 812.5896, 1348.1300
5110022, 973.6075, 1348.1300
5110023, 1166.8290, 1348.1300
5110024, 1398.6948, 1348.1300
5110025, 1676.9338, 1348.1300
5110026, 2000.0000, 1348.1300
5120000, 25.0000, 1370.1000
5120001, 28.5000, 1370.1000
5120002, 32.7000, 1370.1000
5120003, 37.7400, 1370.1000
5120004, 43.7880, 1370.1000
5120005, 51.0456, 1370.1000
5120006, 59.7547, 1370.1000
5120007, 70.2057, 1370.1000
5120008, 82.7468, 1370.1000
5120009, 97.7962, 1370.1000
5120010, 115.8554, 1370.1000
5120011, 137.5265, 1370.1000
5120012, 163.5318, 1370.1000
5120013, 194.7381, 1370.1000
5120014, 232.1857, 1370.1000
5120015, 277.1229, 1370.1000
5120016, 331.0475, 1370.1000
5120017, 395.7569, 1370.1000
5120018, 473.4083, 1370.1000
5120019, 566.5900, 1370.1000
5120020, 678.4080, 1370.1000
5120021, 812.5896, 1370.1000
5120022, 973.6075, 1370.1000
5120023, 1166.8290, 1370.1000
5120024, 1398.6948, 1370.1000
5120025, 1676.9338, 1370.1000
5120026, 2000.0000, 1370.1000
5130000, 25.0000, 1387.0000
5130001, 28.5000, 1387.0000
5130002, 32.7000, 1387.0000
5130003, 37.7400, 1387.0000
5130004, 43.7880, 1387.0000
5130005, 51.0456, 1387.0000
5130006, 59.7547, 1387.0000
5130007, 70.2057, 1387.0000
5130008, 82.7468, 1387.0000
5130009, 97.7962, 1387.0000
5130010, 115.8554, 1387.0000
5130011, 137.5265, 1387.0000
5130012, 163.5318, 1387.0000
5130013, 194.7381, 1387.0000
5130014, 232.1857, 1387.0000
5130015, 277.1229, 1387.0000
5130016, 331.0475, 1387.0000
5130017, 395.7569, 1387.0000
5130018, 473.4083, 1387.0000
5130019, 566.5900, 1387.0000
5130020, 678.4080, 1387.0000
5130021, 812.5896, 1387.0000
5130022, 973.6075, 1387.0000
5130023, 1166.8290, 1387.0000
5130024, 1398.6948, 1387.0000
5130025, 1676.9338, 1387.0000
5130026, 2000.0000, 1387.0000
5140000, 25.0000, 1400.0000
5140001, 28.5000, 1400.0000
5140002, 32.7000, 1400.0000
5140003, 37.7400, 1400.0000
5140004, 43.7880, 1400.0000
5140005, 51.0456, 1400.0000
5140006, 59.7547, 1400.0000
5140007, 70.2057, 1400.0000
5140008, 82.7468, 1400.0000
5140009, 97.7962, 1400.0000
5140010, 115.8554, 1400.0000
5140011, 137.5265, 1400.0000
5140012, 163.5318, 1400.0000
5140013, 194.7381, 1400.0000
5140014, 232.1857, 1400.0000
5140015, 277.1229, 1400.0000
5140016, 331.0475, 1400.0000
5140017, 395.7569, 1400.0000
5140018, 473.4083, 1400.0000
5140019, 566.5900, 1400.0000
5140020, 678.4080, 1400.0000
5140021, 812.5896, 1400.0000
5140022, 973.6075, 1400.0000
5140023, 1166.8290, 1400.0000
5140024, 1398.6948, 1400.0000
5140025, 1676.9338, 1400.0000
5140026, 2000.0000, 1400.0000
5150000, 25.0000, 1407.0000
5150001, 28.5000, 1407.0000
5150002, 32.7000, 1407.0000
5150003, 37.7400, 1407.0000
5150004, 43.7880, 1407.0000
5150005, 51.0456, 1407.0000
5150006, 59.7547, 1407.0000
5150007, 70.2057, 1407.0000
5150008, 82.7468, 1407.0000
5150009, 97.7962, 1407.0000
5150010, 115.8554, 1407.0000
5150011, 137.5265, 1407.0000
5150012, 163.5318, 1407.0000
5150013, 194.7381, 1407.0000
5150014, 232.1857, 1407.0000
5150015, 277.1229, 1407.0000
5150016, 331.0475, 1407.0000
5150017, 395.7569, 1407.0000
5150018, 473.4083, 1407.0000
5150019, 566.5900, 1407.0000
5150020, 678.4080, 1407.0000
5150021, 812.5896, 1407.0000
5150022, 973.6075, 1407.0000
5150023, 1166.8290, 1407.0000
5150024, 1398.6948, 1407.0000
5150025, 1676.9338, 1407.0000
5150026, 2000.0000, 1407.0000
5160000, 25.0000, 1414.0000
5160001, 28.5000, 1414.0000
5160002, 32.7000, 1414.0000
5160003, 37.7400, 1414.0000
5160004, 43.7880, 1414.0000
5160005, 51.0456, 1414.0000
5160006, 59.7547, 1414.0000
5160007, 70.2057, 1414.0000
5160008, 82.7468, 1414.0000
5160009, 97.7962, 1414.0000
5160010, 115.8554, 1414.0000
5160011, 137.5265, 1414.0000
5160012, 163.5318, 1414.0000
5160013, 194.7381, 1414.0000
5160014, 232.1857, 1414.0000
5160015, 277.1229, 1414.0000
5160016, 331.0475, 1414.0000
5160017, 395.7569, 1414.0000
5160018, 473.4083, 1414.0000
5160019, 566.5900, 1414.0000
5160020, 678.4080, 1414.0000
5160021, 812.5896, 1414.0000
5160022, 973.6075, 1414.0000
5160023, 1166.8290, 1414.0000
5160024, 1398.6948, 1414.0000
5160025, 1676.9338, 1414.0000
5160026, 2000.0000, 1414.0000
5170000, 25.0000, 1421.0000
5170001, 28.5000, 1421.0000
5170002, 32.7000, 1421.0000
5170003, 37.7400, 1421.0000
5170004, 43.7880, 1421.0000
5170005, 51.0456, 1421.0000
5170006, 59.7547, 1421.0000
5170007, 70.2057, 1421.0000
5170008, 82.7468, 1421.0000
5170009, 97.7962, 1421.0000
5170010, 115.8554, 1421.0000
5170011, 137.5265, 1421.0000
5170012, 163.5318, 1421.0000
5170013, 194.7381, 1421.0000
5170014, 232.1857, 1421.0000
5170015, 277.1229, 1421.0000
5170016, 331.0475, 1421.0000
5170017, 395.7569, 1421.0000
5170018, 473.4083, 1421.0000
5170019, 566.5900, 1421.0000
5170020, 678.4080, 1421.0000
5170021, 812.5896, 1421.0000
5170022, 973.6075, 1421.0000
5170023, 1166.8290, 1421.0000
5170024, 1398.6948, 1421.0000
5170025, 1676.9338, 1421.0000
5170026, 2000.0000, 1421.0000
5180000, 25.0000, 1428.0000
5180001, 28.5000, 1428.0000
5180002, 32.7000, 1428.0000
5180003, 37.7400, 1428.0000
5180004, 43.7880, 1428.0000
5180005, 51.0456, 1428.0000
5180006, 59.7547, 1428.0000
5180007, 70.2057, 1428.0000
5180008, 82.7468, 1428.0000
5180009, 97.7962, 1428.0000
5180010, 115.8554, 1428.0000
5180011, 137.5265, 1428.0000
5180012, 163.5318, 1428.0000
5180013, 194.7381, 1428.0000
5180014, 232.1857, 1428.0000
5180015, 277.1229, 1428.0000
5180016, 331.0475, 1428.0000
5180017, 395.7569, 1428.0000
5180018, 473.4083, 1428.0000
5180019, 566.5900, 1428.0000
5180020, 678.4080, 1428.0000
5180021, 812.5896, 1428.0000
5180022, 973.6075, 1428.0000
5180023, 1166.8290, 1428.0000
5180024, 1398.6948, 1428.0000
5180025, 1676.9338, 1428.0000
5180026, 2000.0000, 1428.0000
5190000, 25.0000, 1435.0000
5190001, 28.5000, 1435.0000
5190002, 32.7000, 1435.0000
5190003, 37.7400, 1435.0000
5190004, 43.7880, 1435.0000
5190005, 51.0456, 1435.0000
5190006, 59.7547, 1435.0000
5190007, 70.2057, 1435.0000
5190008, 82.7468, 1435.0000
5190009, 97.7962, 1435.0000
5190010, 115.8554, 1435.0000
5190011, 137.5265, 1435.0000
5190012, 163.5318, 1435.0000
5190013, 194.7381, 1435.0000
5190014, 232.1857, 1435.0000
5190015, 277.1229, 1435.0000
5190016, 331.0475, 1435.0000
5190017, 395.7569, 1435.0000
5190018, 473.4083, 1435.0000
5190019, 566.5900, 1435.0000
5190020, 678.4080, 1435.0000
5190021, 812.5896, 1435.0000
5190022, 973.6075, 1435.0000
5190023, 1166.8290, 1435.0000
5190024, 1398.6948, 1435.0000
5190025, 1676.9338, 1435.0000
5190026, 2000.0000, 1435.0000
5200000, 25.0000, 1442.0000
5200001, 28.5000, 1442.0000
5200002, 32.7000, 1442.0000
5200003, 37.7400, 1442.0000
5200004, 43.7880, 1442.0000
5200005, 51.0456, 1442.0000
5200006, 59.7547, 1442.0000
5200007, 70.2057, 1442.0000
5200008, 82.7468, 1442.0000
5200009, 97.7962, 1442.0000
5200010, 115.8554, 1442.0000
5200011, 137.5265, 1442.0000
5200012, 163.5318, 1442.0000
5200013, 194.7381, 1442.0000
5200014, 232.1857, 1442.0000
5200015, 277.1229, 1442.0000
5200016, 331.0475, 1442.0000
5200017, 395.7569, 1442.0000
5200018, 473.4083, 1442.0000
5200019, 566.5900, 1442.0000
5200020, 678.4080, 1442.0000
5200021, 812.5896, 1442.0000
5200022, 973.6075, 1442.0000
5200023, 1166.8290, 1442.0000
5200024, 1398.6948, 1442.0000
5200025, 1676.9338, 1442.0000
5200026, 2000.0000, 1442.0000
5210000, 25.0000, 1449.0000
5210001, 28.5000, 1449.0000
5210002, 32.7000, 1449.0000
5210003, 37.7400, 1449.0000
5210004, 43.7880, 1449.0000
5210005, 51.0456, 1449.0000
5210006, 59.7547, 1449.0000
5210007, 70.2057, 1449.0000
5210008, 82.7468, 1449.0000
5210009, 97.7962, 1449.0000
5210010, 115.8554, 1449.0000
5210011, 137.5265, 1449.0000
5210012, 163.5318, 1449.0000
5210013, 194.7381, 1449.0000
5210014, 232.1857, 1449.0000
5210015, 277.1229, 1449.0000
5210016, 331.0475, 1449.0000
5210017, 395.7569, 1449.0000
5210018, 473.4083, 1449.0000
5210019, 566.5900, 1449.0000
5210020, 678.4080, 1449.0000
5210021, 812.5896, 1449.0000
5210022, 973.6075, 1449.0000
5210023, 1166.8290, 1449.0000
5210024, 1398.6948, 1449.0000
5210025, 1676.9338, 1449.0000
5210026, 2000.0000, 1449.0000
5220000, 25.0000, 1456.0000
5220001, 28.5000, 1456.0000
5220002, 32.7000, 1456.0000
5220003, 37.7400, 1456.0000
5220004, 43.7880, 1456.0000
5220005, 51.0456, 1456.0000
5220006, 59.7547, 1456.0000
5220007, 70.2057, 1456.0000
5220008, 82.7468, 1456.0000
5220009, 97.7962, 1456.0000
5220010, 115.8554, 1456.0000
5220011, 137.5265, 1456.0000
5220012, 163.5318, 1456.0000
5220013, 194.7381, 1456.0000
5220014, 232.1857, 1456.0000
5220015, 277.1229, 1456.0000
5220016, 331.0475, 1456.0000
5220017, 395.7569, 1456.0000
5220018, 473.4083, 1456.0000
5220019, 566.5900, 1456.0000
5220020, 678.4080, 1456.0000
5220021, 812.5896, 1456.0000
5220022, 973.6075, 1456.0000
5220023, 1166.8290, 1456.0000
5220024, 1398.6948, 1456.0000
5220025, 1676.9338, 1456.0000
5220026, 2000.0000, 1456.0000
5230000, 25.0000, 1463.0000
5230001, 28.5000, 1463.0000
5230002, 32.7000, 1463.0000
5230003, 37.7400, 1463.0000
5230004, 43.7880, 1463.0000
5230005, 51.0456, 1463.0000
5230006, 59.7547, 1463.0000
5230007, 70.2057, 1463.0000
5230008, 82.7468, 1463.0000
5230009, 97.7962, 1463.0000
5230010, 115.8554, 1463.0000
5230011, 137.5265, 1463.0000
5230012, 163.5318, 1463.0000
5230013, 194.7381, 1463.0000
5230014, 232.1857, 1463.0000
5230015, 277.1229, 1463.0000
5230016, 331.0475, 1463.0000
5230017, 395.7569, 1463.0000
5230018, 473.4083, 1463.0000
5230019, 566.5900, 1463.0000
5230020, 678.4080, 1463.0000
5230021, 812.5896, 1463.0000
5230022, 973.6075, 1463.0000
5230023, 1166.8290, 1463.0000
5230024, 1398.6948, 1463.0000
5230025, 1676.9338, 1463.0000
5230026, 2000.0000, 1463.0000
5240000, 25.0000, 1470.0000
5240001, 28.5000, 1470.0000
5240002, 32.7000, 1470.0000
5240003, 37.7400, 1470.0000
5240004, 43.7880, 1470.0000
5240005, 51.0456, 1470.0000
5240006, 59.7547, 1470.0000
5240007, 70.2057, 1470.0000
5240008, 82.7468, 1470.0000
5240009, 97.7962, 1470.0000
5240010, 115.8554, 1470.0000
5240011, 137.5265, 1470.0000
5240012, 163.5318, 1470.0000
5240013, 194.7381, 1470.0000
5240014, 232.1857, 1470.0000
5240015, 277.1229, 1470.0000
5240016, 331.0475, 1470.0000
5240017, 395.7569, 1470.0000
5240018, 473.4083, 1470.0000
5240019, 566.5900, 1470.0000
5240020, 678.4080, 1470.0000
5240021, 812.5896, 1470.0000
5240022, 973.6075, 1470.0000
5240023, 1166.8290, 1470.0000
5240024, 1398.6948, 1470.0000
5240025, 1676.9338, 1470.0000
5240026, 2000.0000, 1470.0000
5250000, 25.0000, 1477.0000
5250001, 28.5000, 1477.0000
5250002, 32.7000, 1477.0000
5250003, 37.7400, 1477.0000
5250004, 43.7880, 1477.0000
5250005, 51.0456, 1477.0000
5250006, 59.7547, 1477.0000
5250007, 70.2057, 1477.0000
5250008, 82.7468, 1477.0000
5250009, 97.7962, 1477.0000
5250010, 115.8554, 1477.0000
5250011, 137.5265, 1477.0000
5250012, 163.5318, 1477.0000
5250013, 194.7381, 1477.0000
5250014, 232.1857, 1477.0000
5250015, 277.1229, 1477.0000
5250016, 331.0475, 1477.0000
5250017, 395.7569, 1477.0000
5250018, 473.4083, 1477.0000
5250019, 566.5900, 1477.0000
5250020, 678.4080, 1477.0000
5250021, 812.5896, 1477.0000
5250022, 973.6075, 1477.0000
5250023, 1166.8290, 1477.0000
5250024, 1398.6948, 1477.0000
5250025, 1676.9338, 1477.0000
5250026, 2000.0000, 1477.0000
5260000, 25.0000, 1480.0000
5260001, 28.5000, 1480.0000
5260002, 32.7000, 1480.0000
5260003, 37.7400, 1480.0000
5260004, 43.7880, 1480.0000
5260005, 51.0456, 1480.0000
5260006, 59.7547, 1480.0000
5260007, 70.2057, 1480.0000
5260008, 82.7468, 1480.0000
5260009, 97.7962, 1480.0000
5260010, 115.8554, 1480.0000
5260011, 137.5265, 1480.0000
5260012, 163.5318, 1480.0000
5260013, 194.7381, 1480.0000
5260014, 232.1857, 1480.0000
5260015, 277.1229, 1480.0000
5260016, 331.0475, 1480.0000
5260017, 395.7569, 1480.0000
5260018, 473.4083, 1480.0000
5260019, 566.5900, 1480.0000
5260020, 678.4080, 1480.0000
5260021, 812.5896, 1480.0000
5260022, 973.6075, 1480.0000
5260023, 1166.8290, 1480.0000
5260024, 1398.6948, 1480.0000
5260025, 1676.9338, 1480.0000
5260026, 2000.0000, 1480.0000
5270000, 25.0000, 1481.7500
5270001, 28.5000, 1481.7500
5270002, 32.7000, 1481.7500
5270003, 37.7400, 1481.7500
5270004, 43.7880, 1481.7500
5270005, 51.0456, 1481.7500
5270006, 59.7547, 1481.7500
5270007, 70.2057, 1481.7500
5270008, 82.7468, 1481.7500
5270009, 97.7962, 1481.7500
5270010, 115.8554, 1481.7500
5270011, 137.5265, 1481.7500
5270012, 163.5318, 1481.7500
5270013, 194.7381, 1481.7500
5270014, 232.1857, 1481.7500
5270015, 277.1229, 1481.7500
5270016, 331.0475, 1481.7500
5270017, 395.7569, 1481.7500
5270018, 473.4083, 1481.7500
5270019, 566.5900, 1481.7500
5270020, 678.4080, 1481.7500
5270021, 812.5896, 1481.7500
5270022, 973.6075, 1481.7500
5270023, 1166.8290, 1481.7500
5270024, 1398.6948, 1481.7500
5270025, 1676.9338, 1481.7500
5270026, 2000.0000, 1481.7500
5280000, 25.0000, 1483.5000
5280001, 28.5000, 1483.5000
5280002, 32.7000, 1483.5000
5280003, 37.7400, 1483.5000
5280004, 43.7880, 1483.5000
5280005, 51.0456, 1483.5000
5280006, 59.7547, 1483.5000
5280007, 70.2057, 1483.5000
5280008, 82.7468, 1483.5000
5280009, 97.7962, 1483.5000
5280010, 115.8554, 1483.5000
5280011, 137.5265, 1483.5000
5280012, 163.5318, 1483.5000
5280013, 194.7381, 1483.5000
5280014, 232.1857, 1483.5000
5280015, 277.1229, 1483.5000
5280016, 331.0475, 1483.5000
5280017, 395.7569, 1483.5000
5280018, 473.4083, 1483.5000
5280019, 566.5900, 1483.5000
5280020, 678.4080, 1483.5000
5280021, 812.5896, 1483.5000
5280022, 973.6075, 1483.5000
5280023, 1166.8290, 1483.5000
5280024, 1398.6948, 1483.5000
5280025, 1676.9338, 1483.5000
5280026, 2000.0000, 1483.5000
5290000, 25.0000, 1485.2500
5290001, 28.5000, 1485.2500
5290002, 32.7000, 1485.2500
5290003, 37.7400, 1485.2500
5290004, 43.7880, 1485.2500
5290005, 51.0456, 1485.2500
5290006, 59.7547, 1485.2500
5290007, 70.2057, 1485.2500
5290008, 82.7468, 1485.2500
5290009, 97.7962, 1485.2500
5290010, 115.8554, 1485.2500
5290011, 137.5265, 1485.2500
5290012, 163.5318, 1485.2500
5290013, 194.7381, 1485.2500
5290014, 232.1857, 1485.2500
5290015, 277.1229, 1485.2500
5290016, 331.0475, 1485.2500
5290017, 395.7569, 1485.2500
5290018, 473.4083, 1485.2500
5290019, 566.5900, 1485.2500
5290020, 678.4080, 1485.2500
5290021, 812.5896, 1485.2500
5290022, 973.6075, 1485.2500
5290023, 1166.8290, 1485.2500
5290024, 1398.6948, 1485.2500
5290025, 1676.9338, 1485.2500
5290026, 2000.0000, 1485.2500
5300000, 25.0000, 1487.0000
5300001, 28.5000, 1487.0000
5300002, 32.7000, 1487.0000
5300003, 37.7400, 1487.0000
5300004, 43.7880, 1487.0000
5300005, 51.0456, 1487.0000
5300006, 59.7547, 1487.0000
5300007, 70.2057, 1487.0000
5300008, 82.7468, 1487.0000
5300009, 97.7962, 1487.0000
5300010, 115.8554, 1487.0000
5300011, 137.5265, 1487.0000
5300012, 163.5318, 1487.0000
5300013, 194.7381, 1487.0000
5300014, 232.1857, 1487.0000
5300015, 277.1229, 1487.0000
5300016, 331.0475, 1487.0000
5300017, 395.7569, 1487.0000
5300018, 473.4083, 1487.0000
5300019, 566.5900, 1487.0000
5300020, 678.4080, 1487.0000
5300021, 812.5896, 1487.0000
5300022, 973.6075, 1487.0000
5300023, 1166.8290, 1487.0000
5300024, 1398.6948, 1487.0000
5300025, 1676.9338, 1487.0000
5300026, 2000.0000, 1487.0000
5310000, 25.0000, 1488.7500
5310001, 28.5000, 1488.7500
5310002, 32.7000, 1488.7500
5310003, 37.7400, 1488.7500
5310004, 43.7880, 1488.7500
5310005, 51.0456, 1488.7500
5310006, 59.7547, 1488.7500
5310007, 70.2057, 1488.7500
5310008, 82.7468, 1488.7500
5310009, 97.7962, 1488.7500
5310010, 115.8554, 1488.7500
5310011, 137.5265, 1488.7500
5310012, 163.5318, 1488.7500
5310013, 194.7381, 1488.7500
5310014, 232.1857, 1488.7500
5310015, 277.1229, 1488.7500
5310016, 331.0475, 1488.7500
5310017, 395.7569, 1488.7500
5310018, 473.4083, 1488.7500
5310019, 566.5900, 1488.7500
5310020, 678.4080, 1488.7500
5310021, 812.5896, 1488.7500
5310022, 973.6075, 1488.7500
5310023, 1166.8290, 1488.7500
5310024, 1398.6948, 1488.7500
5310025, 1676.9338, 1488.7500
5310026, 2000.0000, 1488.7500
5320000, 25.0000, 1490.5000
5320001, 28.5000, 1490.5000
5320002, 32.7000, 1490.5000
5320003, 37.7400, 1490.5000
5320004, 43.7880, 1490.5000
5320005, 51.0456, 1490.5000
5320006, 59.7547, 1490.5000
5320007, 70.2057, 1490.5000
5320008, 82.7468, 1490.5000
5320009, 97.7962, 1490.5000
5320010, 115.8554, 1490.5000
5320011, 137.5265, 1490.5000
5320012, 163.5318, 1490.5000
5320013, 194.7381, 1490.5000
5320014, 232.1857, 1490.5000
5320015, 277.1229, 1490.5000
5320016, 331.0475, 1490.5000
5320017, 395.7569, 1490.5000
5320018, 473.4083, 1490.5000
5320019, 566.5900, 1490.5000
5320020, 678.4080, 1490.5000
5320021, 812.5896, 1490.5000
5320022, 973.6075, 1490.5000
5320023, 1166.8290, 1490.5000
5320024, 1398.6948, 1490.5000
5320025, 1676.9338, 1490.5000
5320026, 2000.0000, 1490.5000
5330000, 25.0000, 1492.2500
5330001, 28.5000, 1492.2500
5330002, 32.7000, 1492.2500
5330003, 37.7400, 1492.2500
5330004, 43.7880, 1492.2500
5330005, 51.0456, 1492.2500
5330006, 59.7547, 1492.2500
5330007, 70.2057, 1492.2500
5330008, 82.7468, 1492.2500
5330009, 97.7962, 1492.2500
5330010, 115.8554, 1492.2500
5330011, 137.5265, 1492.2500
5330012, 163.5318, 1492.2500
5330013, 194.7381, 1492.2500
5330014, 232.1857, 1492.2500
5330015, 277.1229, 1492.2500
5330016, 331.0475, 1492.2500
5330017, 395.7569, 1492.2500
5330018, 473.4083, 1492.2500
5330019, 566.5900, 1492.2500
5330020, 678.4080, 1492.2500
5330021, 812.5896, 1492.2500
5330022, 973.6075, 1492.2500
5330023, 1166.8290, 1492.2500
5330024, 1398.6948, 1492.2500
5330025, 1676.9338, 1492.2500
5330026, 2000.0000, 1492.2500
5340000, 25.0000, 1494.0000
5340001, 28.5000, 1494.0000
5340002, 32.7000, 1494.0000
5340003, 37.7400, 1494.0000
5340004, 43.7880, 1494.0000
5340005, 51.0456, 1494.0000
5340006, 59.7547, 1494.0000
5340007, 70.2057, 1494.0000
5340008, 82.7468, 1494.0000
5340009, 97.7962, 1494.0000
5340010, 115.8554, 1494.0000
5340011, 137.5265, 1494.0000
5340012, 163.5318, 1494.0000
5340013, 194.7381, 1494.0000
5340014, 232.1857, 1494.0000
5340015, 277.1229, 1494.0000
5340016, 331.0475, 1494.0000
5340017, 395.7569, 1494.0000
5340018, 473.4083, 1494.0000
5340019, 566.5900, 1494.0000
5340020, 678.4080, 1494.0000
5340021, 812.5896, 1494.0000
5340022, 973.6075, 1494.0000
5340023, 1166.8290, 1494.0000
5340024, 1398.6948, 1494.0000
5340025, 1676.9338, 1494.0000
5340026, 2000.0000, 1494.0000
5350000, 25.0000, 1495.7500
5350001, 28.5000, 1495.7500
5350002, 32.7000, 1495.7500
5350003, 37.7400, 1495.7500
5350004, 43.7880, 1495.7500
5350005, 51.0456, 1495.7500
5350006, 59.7547, 1495.7500
5350007, 70.2057, 1495.7500
5350008, 82.7468, 1495.7500
5350009, 97.7962, 1495.7500
5350010, 115.8554, 1495.7500
5350011, 137.5265, 1495.7500
5350012, 163.5318, 1495.7500
5350013, 194.7381, 1495.7500
5350014, 232.1857, 1495.7500
5350015, 277.1229, 1495.7500
5350016, 331.0475, 1495.7500
5350017, 395.7569, 1495.7500
5350018, 473.4083, 1495.7500
5350019, 566.5900, 1495.7500
5350020, 678.4080, 1495.7500
5350021, 812.5896, 1495.7500
5350022, 973.6075, 1495.7500
5350023, 1166.8290, 1495.7500
5350024, 1398.6948, 1495.7500
5350025, 1676.9338, 1495.7500
5350026, 2000.0000, 1495.7500
5360000, 25.0000, 1497.5000
5360001, 28.5000, 1497.5000
5360002, 32.7000, 1497.5000
5360003, 37.7400, 1497.5000
5360004, 43.7880, 1497.5000
5360005, 51.0456, 1497.5000
5360006, 59.7547, 1497.5000
5360007, 70.2057, 1497.5000
5360008, 82.7468, 1497.5000
5360009, 97.7962, 1497.5000
5360010, 115.8554, 1497.5000
5360011, 137.5265, 1497.5000
5360012, 163.5318, 1497.5000
5360013, 194.7381, 1497.5000
5360014, 232.1857, 1497.5000
5360015, 277.1229, 1497.5000
5360016, 331.0475, 1497.5000
5360017, 395.7569, 1497.5000
5360018, 473.4083, 1497.5000
5360019, 566.5900, 1497.5000
5360020, 678.4080, 1497.5000
5360021, 812.5896, 1497.5000
5360022, 973.6075, 1497.5000
5360023, 1166.8290, 1497.5000
5360024, 1398.6948, 1497.5000
5360025, 1676.9338, 1497.5000
5360026, 2000.0000, 1497.5000
5370000, 25.0000, 1499.2500
5370001, 28.5000, 1499.2500
5370002, 32.7000, 1499.2500
5370003, 37.7400, 1499.2500
5370004, 43.7880, 1499.2500
5370005, 51.0456, 1499.2500
5370006, 59.7547, 1499.2500
5370007, 70.2057, 1499.2500
5370008, 82.7468, 1499.2500
5370009, 97.7962, 1499.2500
5370010, 115.8554, 1499.2500
5370011, 137.5265, 1499.2500
5370012, 163.5318, 1499.2500
5370013, 194.7381, 1499.2500
5370014, 232.1857, 1499.2500
5370015, 277.1229, 1499.2500
5370016, 331.0475, 1499.2500
5370017, 395.7569, 1499.2500
5370018, 473.4083, 1499.2500
5370019, 566.5900, 1499.2500
5370020, 678.4080, 1499.2500
5370021, 812.5896, 1499.2500
5370022, 973.6075, 1499.2500
5370023, 1166.8290, 1499.2500
5370024, 1398.6948, 1499.2500
5370025, 1676.9338, 1499.2500
5370026, 2000.0000, 1499.2500
5380000, 25.0000, 1500.0000
5380001, 28.5000, 1500.0000
5380002, 32.7000, 1500.0000
5380003, 37.7400, 1500.0000
5380004, 43.7880, 1500.0000
5380005, 51.0456, 1500.0000
5380006, 59.7547, 1500.0000
5380007, 70.2057, 1500.0000
5380008, 82.7468, 1500.0000
5380009, 97.7962, 1500.0000
5380010, 115.8554, 1500.0000
5380011, 137.5265, 1500.0000
5380012, 163.5318, 1500.0000
5380013, 194.7381, 1500.0000
5380014, 232.1857, 1500.0000
5380015, 277.1229, 1500.0000
5380016, 331.0475, 1500.0000
5380017, 395.7569, 1500.0000
5380018, 473.4083, 1500.0000
5380019, 566.5900, 1500.0000
5380020, 678.4080, 1500.0000
5380021, 812.5896, 1500.0000
5380022, 973.6075, 1500.0000
5380023, 1166.8290, 1500.0000
5380024, 1398.6948, 1500.0000
5380025, 1676.9338, 1500.0000
5380026, 2000.0000, 1500.0000
*ELEMENT, TYPE=CAX4R
1, 1, 2, 10002, 10001
2, 2, 3, 10003, 10002
3, 3, 4, 10004, 10003
4, 4, 5, 10005, 10004
5, 5, 6, 10006, 10005
6, 6, 7, 10007, 10006
7, 7, 8, 10008, 10007
8, 8, 9, 10009, 10008
9, 9, 10, 10010, 10009
10, 10, 11, 10011, 10010
11, 5000000, 5000001, 5010001, 5010000
12, 5000001, 5000002, 5010002, 5010001
13, 5000002, 5000003, 5010003, 5010002
14, 5000003, 5000004, 5010004, 5010003
15, 5000004, 5000005, 5010005, 5010004
16, 5000005, 5000006, 5010006, 5010005
17, 5000006, 5000007, 5010007, 5010006
18, 5000007, 5000008, 5010008, 5010007
19, 5000008, 5000009, 5010009, 5010008
20, 5000009, 5000010, 5010010, 5010009
21, 5000010, 5000011, 5010011, 5010010
22, 5000011, 5000012, 5010012, 5010011
23, 5000012, 5000013, 5010013, 5010012
24, 5000013, 5000014, 5010014, 5010013
25, 5000014, 5000015, 5010015, 5010014
26, 5000015, 5000016, 5010016, 5010015
27, 5000016, 5000017, 5010017, 5010016
28, 5000017, 5000018, 5010018, 5010017
29, 5000018, 5000019, 5010019, 5010018
30, 5000019, 5000020, 5010020, 5010019
31, 5000020, 5000021, 5010021, 5010020
32, 5000021, 5000022, 5010022, 5010021
33, 5000022, 5000023, 5010023, 5010022
34, 5000023, 5000024, 5010024, 5010023
35, 5000024, 5000025, 5010025, 5010024
36, 5000025, 5000026, 5010026, 5010025
37, 10001, 10002, 20002, 20001
38, 10002, 10003, 20003, 20002
39, 10003, 10004, 20004, 20003
40, 10004, 10005, 20005, 20004
41, 10005, 10006, 20006, 20005
42, 10006, 10007, 20007, 20006
43, 10007, 10008, 20008, 20007
44, 10008, 10009, 20009, 20008
45, 10009, 10010, 20010, 20009
46, 10010, 10011, 20011, 20010
47, 5010000, 5010001, 5020001, 5020000
48, 5010001, 5010002, 5020002, 5020001
49, 5010002, 5010003, 5020003, 5020002
50, 5010003, 5010004, 5020004, 5020003
51, 5010004, 5010005, 5020005, 5020004
52, 5010005, 5010006, 5020006, 5020005
53, 5010006, 5010007, 5020007, 5020006
54, 5010007, 5010008, 5020008, 5020007
55, 5010008, 5010009, 5020009, 5020008
56, 5010009, 5010010, 5020010, 5020009
57, 5010010, 5010011, 5020011, 5020010
58, 5010011, 5010012, 5020012, 5020011
59, 5010012, 5010013, 5020013, 5020012
60, 5010013, 5010014, 5020014, 5020013
61, 5010014, 5010015, 5020015, 5020014
62, 5010015, 5010016, 5020016, 5020015
63, 5010016, 5010017, 5020017, 5020016
64, 5010017, 5010018, 5020018, 5020017
65, 5010018, 5010019, 5020019, 5020018
66, 5010019, 5010020, 5020020, 5020019
67, 5010020, 5010021, 5020021, 5020020
68, 5010021, 5010022, 5020022, 5020021
69, 5010022, 5010023, 5020023, 5020022
70, 5010023, 5010024, 5020024, 5020023
71, 5010024, 5010025, 5020025, 5020024
72, 5010025, 5010026, 5020026, 5020025
73, 20001, 20002, 30002, 30001
74, 20002, 20003, 30003, 30002
75, 20003, 20004, 30004, 30003
76, 20004, 20005, 30005, 30004
77, 20005, 20006, 30006, 30005
78, 20006, 20007, 30007, 30006
79, 20007, 20008, 30008, 30007
80, 20008, 20009, 30009, 30008
81, 20009, 20010, 30010, 30009
82, 20010, 20011, 30011, 30010
83, 5020000, 5020001, 5030001, 5030000
84, 5020001, 5020002, 5030002, 5030001
85, 5020002, 5020003, 5030003, 5030002
86, 5020003, 5020004, 5030004, 5030003
87, 5020004, 5020005, 5030005, 5030004
88, 5020005, 5020006, 5030006, 5030005
89, 5020006, 5020007, 5030007, 5030006
90, 5020007, 5020008, 5030008, 5030007
91, 5020008, 5020009, 5030009, 5030008
92, 5020009, 5020010, 5030010, 5030009
93, 5020010, 5020011, 5030011, 5030010
94, 5020011, 5020012, 5030012, 5030011
95, 5020012, 5020013, 5030013, 5030012
96, 5020013, 5020014, 5030014, 5030013
97, 5020014, 5020015, 5030015, 5030014
98, 5020015, 5020016, 5030016, 5030015
99, 5020016, 5020017, 5030017, 5030016
100, 5020017, 5020018, 5030018, 5030017
101, 5020018, 5020019, 5030019, 5030018
102, 5020019, 5020020, 5030020, 5030019
103, 5020020, 5020021, 5030021, 5030020
104, 5020021, 5020022, 5030022, 5030021
105, 5020022, 5020023, 5030023, 5030022
106, 5020023, 5020024, 5030024, 5030023
107, 5020024, 5020025, 5030025, 5030024
108, 5020025, 5020026, 5030026, 5030025
109, 30001, 30002, 40002, 40001
110, 30002, 30003, 40003, 40002
111, 30003, 30004, 40004, 40003
112, 30004, 30005, 40005, 40004
113, 30005, 30006, 40006, 40005
114, 30006, 30007, 40007, 40006
115, 30007, 30008, 40008, 40007
116, 30008, 30009, 40009, 40008
117, 30009, 30010, 40010, 40009
118, 30010, 30011, 40011, 40010
119, 5030000, 5030001, 5040001, 5040000
120, 5030001, 5030002, 5040002, 5040001
121, 5030002, 5030003, 5040003, 5040002
122, 5030003, 5030004, 5040004, 5040003
123, 5030004, 5030005, 5040005, 5040004
124, 5030005, 5030006, 5040006, 5040005
125, 5030006, 5030007, 5040007, 5040006
126, 5030007, 5030008, 5040008, 5040007
127, 5030008, 5030009, 5040009, 5040008
128, 5030009, 5030010, 5040010, 5040009
129, 5030010, 5030011, 5040011, 5040010
130, 5030011, 5030012, 5040012, 5040011
131, 5030012, 5030013, 5040013, 5040012
132, 5030013, 5030014, 5040014, 5040013
133, 5030014, 5030015, 5040015, 5040014
134, 5030015, 5030016, 5040016, 5040015
135, 5030016, 5030017, 5040017, 5040016
136, 5030017, 5030018, 5040018, 5040017
137, 5030018, 5030019, 5040019, 5040018
138, 5030019, 5030020, 5040020, 5040019
139, 5030020, 5030021, 5040021, 5040020
140, 5030021, 5030022, 5040022, 5040021
141, 5030022, 5030023, 5040023, 5040022
142, 5030023, 5030024, 5040024, 5040023
143, 5030024, 5030025, 5040025, 5040024
144, 5030025, 5030026, 5040026, 5040025
145, 40001, 40002, 50002, 50001
146, 40002, 40003, 50003, 50002
147, 40003, 40004, 50004, 50003
148, 40004, 40005, 50005, 50004
149, 40005, 40006, 50006, 50005
150, 40006, 40007, 50007, 50006
151, 40007, 40008, 50008, 50007
152, 40008, 40009, 50009, 50008
153, 40009, 40010, 50010, 50009
154, 40010, 40011, 50011, 50010
155, 5040000, 5040001, 5050001, 5050000
156, 5040001, 5040002, 5050002, 5050001
157, 5040002, 5040003, 5050003, 5050002
158, 5040003, 5040004, 5050004, 5050003
159, 5040004, 5040005, 5050005, 5050004
160, 5040005, 5040006, 5050006, 5050005
161, 5040006, 5040007, 5050007, 5050006
162, 5040007, 5040008, 5050008, 5050007
163, 5040008, 5040009, 5050009, 5050008
164, 5040009, 5040010, 5050010, 5050009
165, 5040010, 5040011, 5050011, 5050010
166, 5040011, 5040012, 5050012, 5050011
167, 5040012, 5040013, 5050013, 5050012
168, 5040013, 5040014, 5050014, 5050013
169, 5040014, 5040015, 5050015, 5050014
170, 5040015, 5040016, 5050016, 5050015
171, 5040016, 5040017, 5050017, 5050016
172, 5040017, 5040018, 5050018, 5050017
173, 5040018, 5040019, 5050019, 5050018
174, 5040019, 5040020, 5050020, 5050019
175, 5040020, 5040021, 5050021, 5050020
176, 5040021, 5040022, 5050022, 5050021
177, 5040022, 5040023, 5050023, 5050022
178, 5040023, 5040024, 5050024, 5050023
179, 5040024, 5040025, 5050025, 5050024
180, 5040025, 5040026, 5050026, 5050025
181, 50001, 50002, 60002, 60001
182, 50002, 50003, 60003, 60002
183, 50003, 50004, 60004, 60003
184, 50004, 50005, 60005, 60004
185, 50005, 50006, 60006, 60005
186, 50006, 50007, 60007, 60006
187, 50007, 50008, 60008, 60007
188, 50008, 50009, 60009, 60008
189, 50009, 50010, 60010, 60009
190, 50010, 50011, 60011, 60010
191, 5050000, 5050001, 5060001, 5060000
192, 5050001, 5050002, 5060002, 5060001
193, 5050002, 5050003, 5060003, 5060002
194, 5050003, 5050004, 5060004, 5060003
195, 5050004, 5050005, 5060005, 5060004
196, 5050005, 5050006, 5060006, 5060005
197, 5050006, 5050007, 5060007, 5060006
198, 5050007, 5050008, 5060008, 5060007
199, 5050008, 5050009, 5060009, 5060008
200, 5050009, 5050010, 5060010, 5060009
201, 5050010, 5050011, 5060011, 5060010
202, 5050011, 5050012, 5060012, 5060011
203, 5050012, 5050013, 5060013, 5060012
204, 5050013, 5050014, 5060014, 5060013
205, 5050014, 5050015, 5060015, 5060014
206, 5050015, 5050016, 5060016, 5060015
207, 5050016, 5050017, 5060017, 5060016
208, 5050017, 5050018, 5060018, 5060017
209, 5050018, 5050019, 5060019, 5060018
210, 5050019, 5050020, 5060020, 5060019
211, 5050020, 5050021, 5060021, 5060020
212, 5050021, 5050022, 5060022, 5060021
213, 5050022, 5050023, 5060023, 5060022
214, 5050023, 5050024, 5060024, 5060023
215, 5050024, 5050025, 5060025, 5060024
216, 5050025, 5050026, 5060026, 5060025
217, 60001, 60002, 70002, 70001
218, 60002, 60003, 70003, 70002
219, 60003, 60004, 70004, 70003
220, 60004, 60005, 70005, 70004
221, 60005, 60006, 70006, 70005
222, 60006, 60007, 70007, 70006
223, 60007, 60008, 70008, 70007
224, 60008, 60009, 70009, 70008
225, 60009, 60010, 70010, 70009
226, 60010, 60011, 70011, 70010
227, 5060000, 5060001, 5070001, 5070000
228, 5060001, 5060002, 5070002, 5070001
229, 5060002, 5060003, 5070003, 5070002
230, 5060003, 5060004, 5070004, 5070003
231, 5060004, 5060005, 5070005, 5070004
232, 5060005, 5060006, 5070006, 5070005
233, 5060006, 5060007, 5070007, 5070006
234, 5060007, 5060008, 5070008, 5070007
235, 5060008, 5060009, 5070009, 5070008
236, 5060009, 5060010, 5070010, 5070009
237, 5060010, 5060011, 5070011, 5070010
238, 5060011, 5060012, 5070012, 5070011
239, 5060012, 5060013, 5070013, 5070012
240, 5060013, 5060014, 5070014, 5070013
241, 5060014, 5060015, 5070015, 5070014
242, 5060015, 5060016, 5070016, 5070015
243, 5060016, 5060017, 5070017, 5070016
244, 5060017, 5060018, 5070018, 5070017
245, 5060018, 5060019, 5070019, 5070018
246, 5060019, 5060020, 5070020, 5070019
247, 5060020, 5060021, 5070021, 5070020
248, 5060021, 5060022, 5070022, 5070021
249, 5060022, 5060023, 5070023, 5070022
250, 5060023, 5060024, 5070024, 5070023
251, 5060024, 5060025, 5070025, 5070024
252, 5060025, 5060026, 5070026, 5070025
253, 70001, 70002, 80002, 80001
254, 70002, 70003, 80003, 80002
255, 70003, 70004, 80004, 80003
256, 70004, 70005, 80005, 80004
257, 70005, 70006, 80006, 80005
258, 70006, 70007, 80007, 80006
259, 70007, 70008, 80008, 80007
260, 70008, 70009, 80009, 80008
261, 70009, 70010, 80010, 80009
262, 70010, 70011, 80011, 80010
263, 5070000, 5070001, 5080001, 5080000
264, 5070001, 5070002, 5080002, 5080001
265, 5070002, 5070003, 5080003, 5080002
266, 5070003, 5070004, 5080004, 5080003
267, 5070004, 5070005, 5080005, 5080004
268, 5070005, 5070006, 5080006, 5080005
269, 5070006, 5070007, 5080007, 5080006
270, 5070007, 5070008, 5080008, 5080007
271, 5070008, 5070009, 5080009, 5080008
272, 5070009, 5070010, 5080010, 5080009
273, 5070010, 5070011, 5080011, 5080010
274, 5070011, 5070012, 5080012, 5080011
275, 5070012, 5070013, 5080013, 5080012
276, 5070013, 5070014, 5080014, 5080013
277, 5070014, 5070015, 5080015, 5080014
278, 5070015, 5070016, 5080016, 5080015
279, 5070016, 5070017, 5080017, 5080016
280, 5070017, 5070018, 5080018, 5080017
281, 5070018, 5070019, 5080019, 5080018
282, 5070019, 5070020, 5080020, 5080019
283, 5070020, 5070021, 5080021, 5080020
284, 5070021, 5070022, 5080022, 5080021
285, 5070022, 5070023, 5080023, 5080022
286, 5070023, 5070024, 5080024, 5080023
287, 5070024, 5070025, 5080025, 5080024
288, 5070025, 5070026, 5080026, 5080025
289, 80001, 80002, 90002, 90001
290, 80002, 80003, 90003, 90002
291, 80003, 80004, 90004, 90003
292, 80004, 80005, 90005, 90004
293, 80005, 80006, 90006, 90005
294, 80006, 80007, 90007, 90006
295, 80007, 80008, 90008, 90007
296, 80008, 80009, 90009, 90008
297, 80009, 80010, 90010, 90009
298, 80010, 80011, 90011, 90010
299, 5080000, 5080001, 5090001, 5090000
300, 5080001, 5080002, 5090002, 5090001
301, 5080002, 5080003, 5090003, 5090002
302, 5080003, 5080004, 5090004, 5090003
303, 5080004, 5080005, 5090005, 5090004
304, 5080005, 5080006, 5090006, 5090005
305, 5080006, 5080007, 5090007, 5090006
306, 5080007, 5080008, 5090008, 5090007
307, 5080008, 5080009, 5090009, 5090008
308, 5080009, 5080010, 5090010, 5090009
309, 5080010, 5080011, 5090011, 5090010
310, 5080011, 5080012, 5090012, 5090011
311, 5080012, 5080013, 5090013, 5090012
312, 5080013, 5080014, 5090014, 5090013
313, 5080014, 5080015, 5090015, 5090014
314, 5080015, 5080016, 5090016, 5090015
315, 5080016, 5080017, 5090017, 5090016
316, 5080017, 5080018, 5090018, 5090017
317, 5080018, 5080019, 5090019, 5090018
318, 5080019, 5080020, 5090020, 5090019
319, 5080020, 5080021, 5090021, 5090020
320, 5080021, 5080022, 5090022, 5090021
321, 5080022, 5080023, 5090023, 5090022
322, 5080023, 5080024, 5090024, 5090023
323, 5080024, 5080025, 5090025, 5090024
324, 5080025, 5080026, 5090026, 5090025
325, 90001, 90002, 100002, 100001
326, 90002, 90003, 100003, 100002
327, 90003, 90004, 100004, 100003
328, 90004, 90005, 100005, 100004
329, 90005, 90006, 100006, 100005
330, 90006, 90007, 100007, 100006
331, 90007, 90008, 100008, 100007
332, 90008, 90009, 100009, 100008
333, 90009, 90010, 100010, 100009
334, 90010, 90011, 100011, 100010
335, 5090000, 5090001, 5100001, 5100000
336, 5090001, 5090002, 5100002, 5100001
337, 5090002, 5090003, 5100003, 5100002
338, 5090003, 5090004, 5100004, 5100003
339, 5090004, 5090005, 5100005, 5100004
340, 5090005, 5090006, 5100006, 5100005
341, 5090006, 5090007, 5100007, 5100006
342, 5090007, 5090008, 5100008, 5100007
343, 5090008, 5090009, 5100009, 5100008
344, 5090009, 5090010, 5100010, 5100009
345, 5090010, 5090011, 5100011, 5100010
346, 5090011, 5090012, 5100012, 5100011
347, 5090012, 5090013, 5100013, 5100012
348, 5090013, 5090014, 5100014, 5100013
349, 5090014, 5090015, 5100015, 5100014
350, 5090015, 5090016, 5100016, 5100015
351, 5090016, 5090017, 5100017, 5100016
352, 5090017, 5090018, 5100018, 5100017
353, 5090018, 5090019, 5100019, 5100018
354, 5090019, 5090020, 5100020, 5100019
355, 5090020, 5090021, 5100021, 5100020
356, 5090021, 5090022, 5100022, 5100021
357, 5090022, 5090023, 5100023, 5100022
358, 5090023, 5090024, 5100024, 5100023
359, 5090024, 5090025, 5100025, 5100024
360, 5090025, 5090026, 5100026, 5100025
361, 100001, 100002, 110002, 110001
362, 100002, 100003, 110003, 110002
363, 100003, 100004, 110004, 110003
364, 100004, 100005, 110005, 110004
365, 100005, 100006, 110006, 110005
366, 100006, 100007, 110007, 110006
367, 100007, 100008, 110008, 110007
368, 100008, 100009, 110009, 110008
369, 100009, 100010, 110010, 110009
370, 100010, 100011, 110011, 110010
371, 5100000, 5100001, 5110001, 5110000
372, 5100001, 5100002, 5110002, 5110001
373, 5100002, 5100003, 5110003, 5110002
374, 5100003, 5100004, 5110004, 5110003
375, 5100004, 5100005, 5110005, 5110004
376, 5100005, 5100006, 5110006, 5110005
377, 5100006, 5100007, 5110007, 5110006
378, 5100007, 5100008, 5110008, 5110007
379, 5100008, 5100009, 5110009, 5110008
380, 5100009, 5100010, 5110010, 5110009
381, 5100010, 5100011, 5110011, 5110010
382, 5100011, 5100012, 5110012, 5110011
383, 5100012, 5100013, 5110013, 5110012
384, 5100013, 5100014, 5110014, 5110013
385, 5100014, 5100015, 5110015, 5110014
386, 5100015, 5100016, 5110016, 5110015
387, 5100016, 5100017, 5110017, 5110016
388, 5100017, 5100018, 5110018, 5110017
389, 5100018, 5100019, 5110019, 5110018
390, 5100019, 5100020, 5110020, 5110019
391, 5100020, 5100021, 5110021, 5110020
392, 5100021, 5100022, 5110022, 5110021
393, 5100022, 5100023, 5110023, 5110022
394, 5100023, 5100024, 5110024, 5110023
395, 5100024, 5100025, 5110025, 5110024
396, 5100025, 5100026, 5110026, 5110025
397, 110001, 110002, 120002, 120001
398, 110002, 110003, 120003, 120002
399, 110003, 110004, 120004, 120003
400, 110004, 110005, 120005, 120004
401, 110005, 110006, 120006, 120005
402, 110006, 110007, 120007, 120006
403, 110007, 110008, 120008, 120007
404, 110008, 110009, 120009, 120008
405, 110009, 110010, 120010, 120009
406, 110010, 110011, 120011, 120010
407, 5110000, 5110001, 5120001, 5120000
408, 5110001, 5110002, 5120002, 5120001
409, 5110002, 5110003, 5120003, 5120002
410, 5110003, 5110004, 5120004, 5120003
411, 5110004, 5110005, 5120005, 5120004
412, 5110005, 5110006, 5120006, 5120005
413, 5110006, 5110007, 5120007, 5120006
414, 5110007, 5110008, 5120008, 5120007
415, 5110008, 5110009, 5120009, 5120008
416, 5110009, 5110010, 5120010, 5120009
417, 5110010, 5110011, 5120011, 5120010
418, 5110011, 5110012, 5120012, 5120011
419, 5110012, 5110013, 5120013, 5120012
420, 5110013, 5110014, 5120014, 5120013
421, 5110014, 5110015, 5120015, 5120014
422, 5110015, 5110016, 5120016, 5120015
423, 5110016, 5110017, 5120017, 5120016
424, 5110017, 5110018, 5120018, 5120017
425, 5110018, 5110019, 5120019, 5120018
426, 5110019, 5110020, 5120020, 5120019
427, 5110020, 5110021, 5120021, 5120020
428, 5110021, 5110022, 5120022, 5120021
429, 5110022, 5110023, 5120023, 5120022
430, 5110023, 5110024, 5120024, 5120023
431, 5110024, 5110025, 5120025, 5120024
432, 5110025, 5110026, 5120026, 5120025
433, 120001, 120002, 130002, 130001
434, 120002, 120003, 130003, 130002
435, 120003, 120004, 130004, 130003
436, 120004, 120005, 130005, 130004
437, 120005, 120006, 130006, 130005
438, 120006, 120007, 130007, 130006
439, 120007, 120008, 130008, 130007
440, 120008, 120009, 130009, 130008
441, 120009, 120010, 130010, 130009
442, 120010, 120011, 130011, 130010
443, 5120000, 5120001, 5130001, 5130000
444, 5120001, 5120002, 5130002, 5130001
445, 5120002, 5120003, 5130003, 5130002
446, 5120003, 5120004, 5130004, 5130003
447, 5120004, 5120005, 5130005, 5130004
448, 5120005, 5120006, 5130006, 5130005
449, 5120006, 5120007, 5130007, 5130006
450, 5120007, 5120008, 5130008, 5130007
451, 5120008, 5120009, 5130009, 5130008
452, 5120009, 5120010, 5130010, 5130009
453, 5120010, 5120011, 5130011, 5130010
454, 5120011, 5120012, 5130012, 5130011
455, 5120012, 5120013, 5130013, 5130012
456, 5120013, 5120014, 5130014, 5130013
457, 5120014, 5120015, 5130015, 5130014
458, 5120015, 5120016, 5130016, 5130015
459, 5120016, 5120017, 5130017, 5130016
460, 5120017, 5120018, 5130018, 5130017
461, 5120018, 5120019, 5130019, 5130018
462, 5120019, 5120020, 5130020, 5130019
463, 5120020, 5120021, 5130021, 5130020
464, 5120021, 5120022, 5130022, 5130021
465, 5120022, 5120023, 5130023, 5130022
466, 5120023, 5120024, 5130024, 5130023
467, 5120024, 5120025, 5130025, 5130024
468, 5120025, 5120026, 5130026, 5130025
469, 130001, 130002, 140002, 140001
470, 130002, 130003, 140003, 140002
471, 130003, 130004, 140004, 140003
472, 130004, 130005, 140005, 140004
473, 130005, 130006, 140006, 140005
474, 130006, 130007, 140007, 140006
475, 130007, 130008, 140008, 140007
476, 130008, 130009, 140009, 140008
477, 130009, 130010, 140010, 140009
478, 130010, 130011, 140011, 140010
479, 5130000, 5130001, 5140001, 5140000
480, 5130001, 5130002, 5140002, 5140001
481, 5130002, 5130003, 5140003, 5140002
482, 5130003, 5130004, 5140004, 5140003
483, 5130004, 5130005, 5140005, 5140004
484, 5130005, 5130006, 5140006, 5140005
485, 5130006, 5130007, 5140007, 5140006
486, 5130007, 5130008, 5140008, 5140007
487, 5130008, 5130009, 5140009, 5140008
488, 5130009, 5130010, 5140010, 5140009
489, 5130010, 5130011, 5140011, 5140010
490, 5130011, 5130012, 5140012, 5140011
491, 5130012, 5130013, 5140013, 5140012
492, 5130013, 5130014, 5140014, 5140013
493, 5130014, 5130015, 5140015, 5140014
494, 5130015, 5130016, 5140016, 5140015
495, 5130016, 5130017, 5140017, 5140016
496, 5130017, 5130018, 5140018, 5140017
497, 5130018, 5130019, 5140019, 5140018
498, 5130019, 5130020, 5140020, 5140019
499, 5130020, 5130021, 5140021, 5140020
500, 5130021, 5130022, 5140022, 5140021
501, 5130022, 5130023, 5140023, 5140022
502, 5130023, 5130024, 5140024, 5140023
503, 5130024, 5130025, 5140025, 5140024
504, 5130025, 5130026, 5140026, 5140025
505, 140001, 140002, 150002, 150001
506, 140002, 140003, 150003, 150002
507, 140003, 140004, 150004, 150003
508, 140004, 140005, 150005, 150004
509, 140005, 140006, 150006, 150005
510, 140006, 140007, 150007, 150006
511, 140007, 140008, 150008, 150007
512, 140008, 140009, 150009, 150008
513, 140009, 140010, 150010, 150009
514, 140010, 140011, 150011, 150010
515, 5140000, 5140001, 5150001, 5150000
516, 5140001, 5140002, 5150002, 5150001
517, 5140002, 5140003, 5150003, 5150002
518, 5140003, 5140004, 5150004, 5150003
519, 5140004, 5140005, 5150005, 5150004
520, 5140005, 5140006, 5150006, 5150005
521, 5140006, 5140007, 5150007, 5150006
522, 5140007, 5140008, 5150008, 5150007
523, 5140008, 5140009, 5150009, 5150008
524, 5140009, 5140010, 5150010, 5150009
525, 5140010, 5140011, 5150011, 5150010
526, 5140011, 5140012, 5150012, 5150011
527, 5140012, 5140013, 5150013, 5150012
528, 5140013, 5140014, 5150014, 5150013
529, 5140014, 5140015, 5150015, 5150014
530, 5140015, 5140016, 5150016, 5150015
531, 5140016, 5140017, 5150017, 5150016
532, 5140017, 5140018, 5150018, 5150017
533, 5140018, 5140019, 5150019, 5150018
534, 5140019, 5140020, 5150020, 5150019
535, 5140020, 5140021, 5150021, 5150020
536, 5140021, 5140022, 5150022, 5150021
537, 5140022, 5140023, 5150023, 5150022
538, 5140023, 5140024, 5150024, 5150023
539, 5140024, 5140025, 5150025, 5150024
540, 5140025, 5140026, 5150026, 5150025
541, 150001, 150002, 160002, 160001
542, 150002, 150003, 160003, 160002
543, 150003, 150004, 160004, 160003
544, 150004, 150005, 160005, 160004
545, 150005, 150006, 160006, 160005
546, 150006, 150007, 160007, 160006
547, 150007, 150008, 160008, 160007
548, 150008, 150009, 160009, 160008
549, 150009, 150010, 160010, 160009
550, 150010, 150011, 160011, 160010
551, 5150000, 5150001, 5160001, 5160000
552, 5150001, 5150002, 5160002, 5160001
553, 5150002, 5150003, 5160003, 5160002
554, 5150003, 5150004, 5160004, 5160003
555, 5150004, 5150005, 5160005, 5160004
556, 5150005, 5150006, 5160006, 5160005
557, 5150006, 5150007, 5160007, 5160006
558, 5150007, 5150008, 5160008, 5160007
559, 5150008, 5150009, 5160009, 5160008
560, 5150009, 5150010, 5160010, 5160009
561, 5150010, 5150011, 5160011, 5160010
562, 5150011, 5150012, 5160012, 5160011
563, 5150012, 5150013, 5160013, 5160012
564, 5150013, 5150014, 5160014, 5160013
565, 5150014, 5150015, 5160015, 5160014
566, 5150015, 5150016, 5160016, 5160015
567, 5150016, 5150017, 5160017, 5160016
568, 5150017, 5150018, 5160018, 5160017
569, 5150018, 5150019, 5160019, 5160018
570, 5150019, 5150020, 5160020, 5160019
571, 5150020, 5150021, 5160021, 5160020
572, 5150021, 5150022, 5160022, 5160021
573, 5150022, 5150023, 5160023, 5160022
574, 5150023, 5150024, 5160024, 5160023
575, 5150024, 5150025, 5160025, 5160024
576, 5150025, 5150026, 5160026, 5160025
577, 160001, 160002, 170002, 170001
578, 160002, 160003, 170003, 170002
579, 160003, 160004, 170004, 170003
580, 160004, 160005, 170005, 170004
581, 160005, 160006, 170006, 170005
582, 160006, 160007, 170007, 170006
583, 160007, 160008, 170008, 170007
584, 160008, 160009, 170009, 170008
585, 160009, 160010, 170010, 170009
586, 160010, 160011, 170011, 170010
587, 5160000, 5160001, 5170001, 5170000
588, 5160001, 5160002, 5170002, 5170001
589, 5160002, 5160003, 5170003, 5170002
590, 5160003, 5160004, 5170004, 5170003
591, 5160004, 5160005, 5170005, 5170004
592, 5160005, 5160006, 5170006, 5170005
593, 5160006, 5160007, 5170007, 5170006
594, 5160007, 5160008, 5170008, 5170007
595, 5160008, 5160009, 5170009, 5170008
596, 5160009, 5160010, 5170010, 5170009
597, 5160010, 5160011, 5170011, 5170010
598, 5160011, 5160012, 5170012, 5170011
599, 5160012, 5160013, 5170013, 5170012
600, 5160013, 5160014, 5170014, 5170013
601, 5160014, 5160015, 5170015, 5170014
602, 5160015, 5160016, 5170016, 5170015
603, 5160016, 5160017, 5170017, 5170016
604, 5160017, 5160018, 5170018, 5170017
605, 5160018, 5160019, 5170019, 5170018
606, 5160019, 5160020, 5170020, 5170019
607, 5160020, 5160021, 5170021, 5170020
608, 5160021, 5160022, 5170022, 5170021
609, 5160022, 5160023, 5170023, 5170022
610, 5160023, 5160024, 5170024, 5170023
611, 5160024, 5160025, 5170025, 5170024
612, 5160025, 5160026, 5170026, 5170025
613, 170001, 170002, 180002, 180001
614, 170002, 170003, 180003, 180002
615, 170003, 170004, 180004, 180003
616, 170004, 170005, 180005, 180004
617, 170005, 170006, 180006, 180005
618, 170006, 170007, 180007, 180006
619, 170007, 170008, 180008, 180007
620, 170008, 170009, 180009, 180008
621, 170009, 170010, 180010, 180009
622, 170010, 170011, 180011, 180010
623, 5170000, 5170001, 5180001, 5180000
624, 5170001, 5170002, 5180002, 5180001
625, 5170002, 5170003, 5180003, 5180002
626, 5170003, 5170004, 5180004, 5180003
627, 5170004, 5170005, 5180005, 5180004
628, 5170005, 5170006, 5180006, 5180005
629, 5170006, 5170007, 5180007, 5180006
630, 5170007, 5170008, 5180008, 5180007
631, 5170008, 5170009, 5180009, 5180008
632, 5170009, 5170010, 5180010, 5180009
633, 5170010, 5170011, 5180011, 5180010
634, 5170011, 5170012, 5180012, 5180011
635, 5170012, 5170013, 5180013, 5180012
636, 5170013, 5170014, 5180014, 5180013
637, 5170014, 5170015, 5180015, 5180014
638, 5170015, 5170016, 5180016, 5180015
639, 5170016, 5170017, 5180017, 5180016
640, 5170017, 5170018, 5180018, 5180017
641, 5170018, 5170019, 5180019, 5180018
642, 5170019, 5170020, 5180020, 5180019
643, 5170020, 5170021, 5180021, 5180020
644, 5170021, 5170022, 5180022, 5180021
645, 5170022, 5170023, 5180023, 5180022
646, 5170023, 5170024, 5180024, 5180023
647, 5170024, 5170025, 5180025, 5180024
648, 5170025, 5170026, 5180026, 5180025
649, 180001, 180002, 190002, 190001
650, 180002, 180003, 190003, 190002
651, 180003, 180004, 190004, 190003
652, 180004, 180005, 190005, 190004
653, 180005, 180006, 190006, 190005
654, 180006, 180007, 190007, 190006
655, 180007, 180008, 190008, 190007
656, 180008, 180009, 190009, 190008
657, 180009, 180010, 190010, 190009
658, 180010, 180011, 190011, 190010
659, 5180000, 5180001, 5190001, 5190000
660, 5180001, 5180002, 5190002, 5190001
661, 5180002, 5180003, 5190003, 5190002
662, 5180003, 5180004, 5190004, 5190003
663, 5180004, 5180005, 5190005, 5190004
664, 5180005, 5180006, 5190006, 5190005
665, 5180006, 5180007, 5190007, 5190006
666, 5180007, 5180008, 5190008, 5190007
667, 5180008, 5180009, 5190009, 5190008
668, 5180009, 5180010, 5190010, 5190009
669, 5180010, 5180011, 5190011, 5190010
670, 5180011, 5180012, 5190012, 5190011
671, 5180012, 5180013, 5190013, 5190012
672, 5180013, 5180014, 5190014, 5190013
673, 5180014, 5180015, 5190015, 5190014
674, 5180015, 5180016, 5190016, 5190015
675, 5180016, 5180017, 5190017, 5190016
676, 5180017, 5180018, 5190018, 5190017
677, 5180018, 5180019, 5190019, 5190018
678, 5180019, 5180020, 5190020, 5190019
679, 5180020, 5180021, 5190021, 5190020
680, 5180021, 5180022, 5190022, 5190021
681, 5180022, 5180023, 5190023, 5190022
682, 5180023, 5180024, 5190024, 5190023
683, 5180024, 5180025, 5190025, 5190024
684, 5180025, 5180026, 5190026, 5190025
685, 190001, 190002, 200002, 200001
686, 190002, 190003, 200003, 200002
687, 190003, 190004, 200004, 200003
688, 190004, 190005, 200005, 200004
689, 190005, 190006, 200006, 200005
690, 190006, 190007, 200007, 200006
691, 190007, 190008, 200008, 200007
692, 190008, 190009, 200009, 200008
693, 190009, 190010, 200010, 200009
694, 190010, 190011, 200011, 200010
695, 5190000, 5190001, 5200001, 5200000
696, 5190001, 5190002, 5200002, 5200001
697, 5190002, 5190003, 5200003, 5200002
698, 5190003, 5190004, 5200004, 5200003
699, 5190004, 5190005, 5200005, 5200004
700, 5190005, 5190006, 5200006, 5200005
701, 5190006, 5190007, 5200007, 5200006
702, 5190007, 5190008, 5200008, 5200007
703, 5190008, 5190009, 5200009, 5200008
704, 5190009, 5190010, 5200010, 5200009
705, 5190010, 5190011, 5200011, 5200010
706, 5190011, 5190012, 5200012, 5200011
707, 5190012, 5190013, 5200013, 5200012
708, 5190013, 5190014, 5200014, 5200013
709, 5190014, 5190015, 5200015, 5200014
710, 5190015, 5190016, 5200016, 5200015
711, 5190016, 5190017, 5200017, 5200016
712, 5190017, 5190018, 5200018, 5200017
713, 5190018, 5190019, 5200019, 5200018
714, 5190019, 5190020, 5200020, 5200019
715, 5190020, 5190021, 5200021, 5200020
716, 5190021, 5190022, 5200022, 5200021
717, 5190022, 5190023, 5200023, 5200022
718, 5190023, 5190024, 5200024, 5200023
719, 5190024, 5190025, 5200025, 5200024
720, 5190025, 5190026, 5200026, 5200025
721, 200001, 200002, 210002, 210001
722, 200002, 200003, 210003, 210002
723, 200003, 200004, 210004, 210003
724, 200004, 200005, 210005, 210004
725, 200005, 200006, 210006, 210005
726, 200006, 200007, 210007, 210006
727, 200007, 200008, 210008, 210007
728, 200008, 200009, 210009, 210008
729, 200009, 200010, 210010, 210009
730, 200010, 200011, 210011, 210010
731, 5200000, 5200001, 5210001, 5210000
732, 5200001, 5200002, 5210002, 5210001
733, 5200002, 5200003, 5210003, 5210002
734, 5200003, 5200004, 5210004, 5210003
735, 5200004, 5200005, 5210005, 5210004
736, 5200005, 5200006, 5210006, 5210005
737, 5200006, 5200007, 5210007, 5210006
738, 5200007, 5200008, 5210008, 5210007
739, 5200008, 5200009, 5210009, 5210008
740, 5200009, 5200010, 5210010, 5210009
741, 5200010, 5200011, 5210011, 5210010
742, 5200011, 5200012, 5210012, 5210011
743, 5200012, 5200013, 5210013, 5210012
744, 5200013, 5200014, 5210014, 5210013
745, 5200014, 5200015, 5210015, 5210014
746, 5200015, 5200016, 5210016, 5210015
747, 5200016, 5200017, 5210017, 5210016
748, 5200017, 5200018, 5210018, 5210017
749, 5200018, 5200019, 5210019, 5210018
750, 5200019, 5200020, 5210020, 5210019
751, 5200020, 5200021, 5210021, 5210020
752, 5200021, 5200022, 5210022, 5210021
753, 5200022, 5200023, 5210023, 5210022
754, 5200023, 5200024, 5210024, 5210023
755, 5200024, 5200025, 5210025, 5210024
756, 5200025, 5200026, 5210026, 5210025
757, 210001, 210002, 220002, 220001
758, 210002, 210003, 220003, 220002
759, 210003, 210004, 220004, 220003
760, 210004, 210005, 220005, 220004
761, 210005, 210006, 220006, 220005
762, 210006, 210007, 220007, 220006
763, 210007, 210008, 220008, 220007
764, 210008, 210009, 220009, 220008
765, 210009, 210010, 220010, 220009
766, 210010, 210011, 220011, 220010
767, 5210000, 5210001, 5220001, 5220000
768, 5210001, 5210002, 5220002, 5220001
769, 5210002, 5210003, 5220003, 5220002
770, 5210003, 5210004, 5220004, 5220003
771, 5210004, 5210005, 5220005, 5220004
772, 5210005, 5210006, 5220006, 5220005
773, 5210006, 5210007, 5220007, 5220006
774, 5210007, 5210008, 5220008, 5220007
775, 5210008, 5210009, 5220009, 5220008
776, 5210009, 5210010, 5220010, 5220009
777, 5210010, 5210011, 5220011, 5220010
778, 5210011, 5210012, 5220012, 5220011
779, 5210012, 5210013, 5220013, 5220012
780, 5210013, 5210014, 5220014, 5220013
781, 5210014, 5210015, 5220015, 5220014
782, 5210015, 5210016, 5220016, 5220015
783, 5210016, 5210017, 5220017, 5220016
784, 5210017, 5210018, 5220018, 5220017
785, 5210018, 5210019, 5220019, 5220018
786, 5210019, 5210020, 5220020, 5220019
787, 5210020, 5210021, 5220021, 5220020
788, 5210021, 5210022, 5220022, 5220021
789, 5210022, 5210023, 5220023, 5220022
790, 5210023, 5210024, 5220024, 5220023
791, 5210024, 5210025, 5220025, 5220024
792, 5210025, 5210026, 5220026, 5220025
793, 220001, 220002, 230002, 230001
794, 220002, 220003, 230003, 230002
795, 220003, 220004, 230004, 230003
796, 220004, 220005, 230005, 230004
797, 220005, 220006, 230006, 230005
798, 220006, 220007, 230007, 230006
799, 220007, 220008, 230008, 230007
800, 220008, 220009, 230009, 230008
801, 220009, 220010, 230010, 230009
802, 220010, 220011, 230011, 230010
803, 5220000, 5220001, 5230001, 5230000
804, 5220001, 5220002, 5230002, 5230001
805, 5220002, 5220003, 5230003, 5230002
806, 5220003, 5220004, 5230004, 5230003
807, 5220004, 5220005, 5230005, 5230004
808, 5220005, 5220006, 5230006, 5230005
809, 5220006, 5220007, 5230007, 5230006
810, 5220007, 5220008, 5230008, 5230007
811, 5220008, 5220009, 5230009, 5230008
812, 5220009, 5220010, 5230010, 5230009
813, 5220010, 5220011, 5230011, 5230010
814, 5220011, 5220012, 5230012, 5230011
815, 5220012, 5220013, 5230013, 5230012
816, 5220013, 5220014, 5230014, 5230013
817, 5220014, 5220015, 5230015, 5230014
818, 5220015, 5220016, 5230016, 5230015
819, 5220016, 5220017, 5230017, 5230016
820, 5220017, 5220018, 5230018, 5230017
821, 5220018, 5220019, 5230019, 5230018
822, 5220019, 5220020, 5230020, 5230019
823, 5220020, 5220021, 5230021, 5230020
824, 5220021, 5220022, 5230022, 5230021
825, 5220022, 5220023, 5230023, 5230022
826, 5220023, 5220024, 5230024, 5230023
827, 5220024, 5220025, 5230025, 5230024
828, 5220025, 5220026, 5230026, 5230025
829, 230001, 230002, 240002, 240001
830, 230002, 230003, 240003, 240002
831, 230003, 230004, 240004, 240003
832, 230004, 230005, 240005, 240004
833, 230005, 230006, 240006, 240005
834, 230006, 230007, 240007, 240006
835, 230007, 230008, 240008, 240007
836, 230008, 230009, 240009, 240008
837, 230009, 230010, 240010, 240009
838, 230010, 230011, 240011, 240010
839, 5230000, 5230001, 5240001, 5240000
840, 5230001, 5230002, 5240002, 5240001
841, 5230002, 5230003, 5240003, 5240002
842, 5230003, 5230004, 5240004, 5240003
843, 5230004, 5230005, 5240005, 5240004
844, 5230005, 5230006, 5240006, 5240005
845, 5230006, 5230007, 5240007, 5240006
846, 5230007, 5230008, 5240008, 5240007
847, 5230008, 5230009, 5240009, 5240008
848, 5230009, 5230010, 5240010, 5240009
849, 5230010, 5230011, 5240011, 5240010
850, 5230011, 5230012, 5240012, 5240011
851, 5230012, 5230013, 5240013, 5240012
852, 5230013, 5230014, 5240014, 5240013
853, 5230014, 5230015, 5240015, 5240014
854, 5230015, 5230016, 5240016, 5240015
855, 5230016, 5230017, 5240017, 5240016
856, 5230017, 5230018, 5240018, 5240017
857, 5230018, 5230019, 5240019, 5240018
858, 5230019, 5230020, 5240020, 5240019
859, 5230020, 5230021, 5240021, 5240020
860, 5230021, 5230022, 5240022, 5240021
861, 5230022, 5230023, 5240023, 5240022
862, 5230023, 5230024, 5240024, 5240023
863, 5230024, 5230025, 5240025, 5240024
864, 5230025, 5230026, 5240026, 5240025
865, 240001, 240002, 250002, 250001
866, 240002, 240003, 250003, 250002
867, 240003, 240004, 250004, 250003
868, 240004, 240005, 250005, 250004
869, 240005, 240006, 250006, 250005
870, 240006, 240007, 250007, 250006
871, 240007, 240008, 250008, 250007
872, 240008, 240009, 250009, 250008
873, 240009, 240010, 250010, 250009
874, 240010, 240011, 250011, 250010
875, 5240000, 5240001, 5250001, 5250000
876, 5240001, 5240002, 5250002, 5250001
877, 5240002, 5240003, 5250003, 5250002
878, 5240003, 5240004, 5250004, 5250003
879, 5240004, 5240005, 5250005, 5250004
880, 5240005, 5240006, 5250006, 5250005
881, 5240006, 5240007, 5250007, 5250006
882, 5240007, 5240008, 5250008, 5250007
883, 5240008, 5240009, 5250009, 5250008
884, 5240009, 5240010, 5250010, 5250009
885, 5240010, 5240011, 5250011, 5250010
886, 5240011, 5240012, 5250012, 5250011
887, 5240012, 5240013, 5250013, 5250012
888, 5240013, 5240014, 5250014, 5250013
889, 5240014, 5240015, 5250015, 5250014
890, 5240015, 5240016, 5250016, 5250015
891, 5240016, 5240017, 5250017, 5250016
892, 5240017, 5240018, 5250018, 5250017
893, 5240018, 5240019, 5250019, 5250018
894, 5240019, 5240020, 5250020, 5250019
895, 5240020, 5240021, 5250021, 5250020
896, 5240021, 5240022, 5250022, 5250021
897, 5240022, 5240023, 5250023, 5250022
898, 5240023, 5240024, 5250024, 5250023
899, 5240024, 5240025, 5250025, 5250024
900, 5240025, 5240026, 5250026, 5250025
901, 250001, 250002, 260002, 260001
902, 250002, 250003, 260003, 260002
903, 250003, 250004, 260004, 260003
904, 250004, 250005, 260005, 260004
905, 250005, 250006, 260006, 260005
906, 250006, 250007, 260007, 260006
907, 250007, 250008, 260008, 260007
908, 250008, 250009, 260009, 260008
909, 250009, 250010, 260010, 260009
910, 250010, 250011, 260011, 260010
911, 5250000, 5250001, 5260001, 5260000
912, 5250001, 5250002, 5260002, 5260001
913, 5250002, 5250003, 5260003, 5260002
914, 5250003, 5250004, 5260004, 5260003
915, 5250004, 5250005, 5260005, 5260004
916, 5250005, 5250006, 5260006, 5260005
917, 5250006, 5250007, 5260007, 5260006
918, 5250007, 5250008, 5260008, 5260007
919, 5250008, 5250009, 5260009, 5260008
920, 5250009, 5250010, 5260010, 5260009
921, 5250010, 5250011, 5260011, 5260010
922, 5250011, 5250012, 5260012, 5260011
923, 5250012, 5250013, 5260013, 5260012
924, 5250013, 5250014, 5260014, 5260013
925, 5250014, 5250015, 5260015, 5260014
926, 5250015, 5250016, 5260016, 5260015
927, 5250016, 5250017, 5260017, 5260016
928, 5250017, 5250018, 5260018, 5260017
929, 5250018, 5250019, 5260019, 5260018
930, 5250019, 5250020, 5260020, 5260019
931, 5250020, 5250021, 5260021, 5260020
932, 5250021, 5250022, 5260022, 5260021
933, 5250022, 5250023, 5260023, 5260022
934, 5250023, 5250024, 5260024, 5260023
935, 5250024, 5250025, 5260025, 5260024
936, 5250025, 5250026, 5260026, 5260025
937, 260001, 260002, 270002, 270001
938, 260002, 260003, 270003, 270002
939, 260003, 260004, 270004, 270003
940, 260004, 260005, 270005, 270004
941, 260005, 260006, 270006, 270005
942, 260006, 260007, 270007, 270006
943, 260007, 260008, 270008, 270007
944, 260008, 260009, 270009, 270008
945, 260009, 260010, 270010, 270009
946, 260010, 260011, 270011, 270010
947, 5260000, 5260001, 5270001, 5270000
948, 5260001, 5260002, 5270002, 5270001
949, 5260002, 5260003, 5270003, 5270002
950, 5260003, 5260004, 5270004, 5270003
951, 5260004, 5260005, 5270005, 5270004
952, 5260005, 5260006, 5270006, 5270005
953, 5260006, 5260007, 5270007, 5270006
954, 5260007, 5260008, 5270008, 5270007
955, 5260008, 5260009, 5270009, 5270008
956, 5260009, 5260010, 5270010, 5270009
957, 5260010, 5260011, 5270011, 5270010
958, 5260011, 5260012, 5270012, 5270011
959, 5260012, 5260013, 5270013, 5270012
960, 5260013, 5260014, 5270014, 5270013
961, 5260014, 5260015, 5270015, 5270014
962, 5260015, 5260016, 5270016, 5270015
963, 5260016, 5260017, 5270017, 5270016
964, 5260017, 5260018, 5270018, 5270017
965, 5260018, 5260019, 5270019, 5270018
966, 5260019, 5260020, 5270020, 5270019
967, 5260020, 5260021, 5270021, 5270020
968, 5260021, 5260022, 5270022, 5270021
969, 5260022, 5260023, 5270023, 5270022
970, 5260023, 5260024, 5270024, 5270023
971, 5260024, 5260025, 5270025, 5270024
972, 5260025, 5260026, 5270026, 5270025
973, 270001, 270002, 280002, 280001
974, 270002, 270003, 280003, 280002
975, 270003, 270004, 280004, 280003
976, 270004, 270005, 280005, 280004
977, 270005, 270006, 280006, 280005
978, 270006, 270007, 280007, 280006
979, 270007, 270008, 280008, 280007
980, 270008, 270009, 280009, 280008
981, 270009, 270010, 280010, 280009
982, 270010, 270011, 280011, 280010
983, 5270000, 5270001, 5280001, 5280000
984, 5270001, 5270002, 5280002, 5280001
985, 5270002, 5270003, 5280003, 5280002
986, 5270003, 5270004, 5280004, 5280003
987, 5270004, 5270005, 5280005, 5280004
988, 5270005, 5270006, 5280006, 5280005
989, 5270006, 5270007, 5280007, 5280006
990, 5270007, 5270008, 5280008, 5280007
991, 5270008, 5270009, 5280009, 5280008
992, 5270009, 5270010, 5280010, 5280009
993, 5270010, 5270011, 5280011, 5280010
994, 5270011, 5270012, 5280012, 5280011
995, 5270012, 5270013, 5280013, 5280012
996, 5270013, 5270014, 5280014, 5280013
997, 5270014, 5270015, 5280015, 5280014
998, 5270015, 5270016, 5280016, 5280015
999, 5270016, 5270017, 5280017, 5280016
1000, 5270017, 5270018, 5280018, 5280017
1001, 5270018, 5270019, 5280019, 5280018
1002, 5270019, 5270020, 5280020, 5280019
1003, 5270020, 5270021, 5280021, 5280020
1004, 5270021, 5270022, 5280022, 5280021
1005, 5270022, 5270023, 5280023, 5280022
1006, 5270023, 5270024, 5280024, 5280023
1007, 5270024, 5270025, 5280025, 5280024
1008, 5270025, 5270026, 5280026, 5280025
1009, 280001, 280002, 290002, 290001
1010, 280002, 280003, 290003, 290002
1011, 280003, 280004, 290004, 290003
1012, 280004, 280005, 290005, 290004
1013, 280005, 280006, 290006, 290005
1014, 280006, 280007, 290007, 290006
1015, 280007, 280008, 290008, 290007
1016, 280008, 280009, 290009, 290008
1017, 280009, 280010, 290010, 290009
1018, 280010, 280011, 290011, 290010
1019, 5280000, 5280001, 5290001, 5290000
1020, 5280001, 5280002, 5290002, 5290001
1021, 5280002, 5280003, 5290003, 5290002
1022, 5280003, 5280004, 5290004, 5290003
1023, 5280004, 5280005, 5290005, 5290004
1024, 5280005, 5280006, 5290006, 5290005
1025, 5280006, 5280007, 5290007, 5290006
1026, 5280007, 5280008, 5290008, 5290007
1027, 5280008, 5280009, 5290009, 5290008
1028, 5280009, 5280010, 5290010, 5290009
1029, 5280010, 5280011, 5290011, 5290010
1030, 5280011, 5280012, 5290012, 5290011
1031, 5280012, 5280013, 5290013, 5290012
1032, 5280013, 5280014, 5290014, 5290013
1033, 5280014, 5280015, 5290015, 5290014
1034, 5280015, 5280016, 5290016, 5290015
1035, 5280016, 5280017, 5290017, 5290016
1036, 5280017, 5280018, 5290018, 5290017
1037, 5280018, 5280019, 5290019, 5290018
1038, 5280019, 5280020, 5290020, 5290019
1039, 5280020, 5280021, 5290021, 5290020
1040, 5280021, 5280022, 5290022, 5290021
1041, 5280022, 5280023, 5290023, 5290022
1042, 5280023, 5280024, 5290024, 5290023
1043, 5280024, 5280025, 5290025, 5290024
1044, 5280025, 5280026, 5290026, 5290025
1045, 290001, 290002, 300002, 300001
1046, 290002, 290003, 300003, 300002
1047, 290003, 290004, 300004, 300003
1048, 290004, 290005, 300005, 300004
1049, 290005, 290006, 300006, 300005
1050, 290006, 290007, 300007, 300006
1051, 290007, 290008, 300008, 300007
1052, 290008, 290009, 300009, 300008
1053, 290009, 290010, 300010, 300009
1054, 290010, 290011, 300011, 300010
1055, 5290000, 5290001, 5300001, 5300000
1056, 5290001, 5290002, 5300002, 5300001
1057, 5290002, 5290003, 5300003, 5300002
1058, 5290003, 5290004, 5300004, 5300003
1059, 5290004, 5290005, 5300005, 5300004
1060, 5290005, 5290006, 5300006, 5300005
1061, 5290006, 5290007, 5300007, 5300006
1062, 5290007, 5290008, 5300008, 5300007
1063, 5290008, 5290009, 5300009, 5300008
1064, 5290009, 5290010, 5300010, 5300009
1065, 5290010, 5290011, 5300011, 5300010
1066, 5290011, 5290012, 5300012, 5300011
1067, 5290012, 5290013, 5300013, 5300012
1068, 5290013, 5290014, 5300014, 5300013
1069, 5290014, 5290015, 5300015, 5300014
1070, 5290015, 5290016, 5300016, 5300015
1071, 5290016, 5290017, 5300017, 5300016
1072, 5290017, 5290018, 5300018, 5300017
1073, 5290018, 5290019, 5300019, 5300018
1074, 5290019, 5290020, 5300020, 5300019
1075, 5290020, 5290021, 5300021, 5300020
1076, 5290021, 5290022, 5300022, 5300021
1077, 5290022, 5290023, 5300023, 5300022
1078, 5290023, 5290024, 5300024, 5300023
1079, 5290024, 5290025, 5300025, 5300024
1080, 5290025, 5290026, 5300026, 5300025
1081, 300001, 300002, 310002, 310001
1082, 300002, 300003, 310003, 310002
1083, 300003, 300004, 310004, 310003
1084, 300004, 300005, 310005, 310004
1085, 300005, 300006, 310006, 310005
1086, 300006, 300007, 310007, 310006
1087, 300007, 300008, 310008, 310007
1088, 300008, 300009, 310009, 310008
1089, 300009, 300010, 310010, 310009
1090, 300010, 300011, 310011, 310010
1091, 5300000, 5300001, 5310001, 5310000
1092, 5300001, 5300002, 5310002, 5310001
1093, 5300002, 5300003, 5310003, 5310002
1094, 5300003, 5300004, 5310004, 5310003
1095, 5300004, 5300005, 5310005, 5310004
1096, 5300005, 5300006, 5310006, 5310005
1097, 5300006, 5300007, 5310007, 5310006
1098, 5300007, 5300008, 5310008, 5310007
1099, 5300008, 5300009, 5310009, 5310008
1100, 5300009, 5300010, 5310010, 5310009
1101, 5300010, 5300011, 5310011, 5310010
1102, 5300011, 5300012, 5310012, 5310011
1103, 5300012, 5300013, 5310013, 5310012
1104, 5300013, 5300014, 5310014, 5310013
1105, 5300014, 5300015, 5310015, 5310014
1106, 5300015, 5300016, 5310016, 5310015
1107, 5300016, 5300017, 5310017, 5310016
1108, 5300017, 5300018, 5310018, 5310017
1109, 5300018, 5300019, 5310019, 5310018
1110, 5300019, 5300020, 5310020, 5310019
1111, 5300020, 5300021, 5310021, 5310020
1112, 5300021, 5300022, 5310022, 5310021
1113, 5300022, 5300023, 5310023, 5310022
1114, 5300023, 5300024, 5310024, 5310023
1115, 5300024, 5300025, 5310025, 5310024
1116, 5300025, 5300026, 5310026, 5310025
1117, 310001, 310002, 320002, 320001
1118, 310002, 310003, 320003, 320002
1119, 310003, 310004, 320004, 320003
1120, 310004, 310005, 320005, 320004
1121, 310005, 310006, 320006, 320005
1122, 310006, 310007, 320007, 320006
1123, 310007, 310008, 320008, 320007
1124, 310008, 310009, 320009, 320008
1125, 310009, 310010, 320010, 320009
1126, 310010, 310011, 320011, 320010
1127, 5310000, 5310001, 5320001, 5320000
1128, 5310001, 5310002, 5320002, 5320001
1129, 5310002, 5310003, 5320003, 5320002
1130, 5310003, 5310004, 5320004, 5320003
1131, 5310004, 5310005, 5320005, 5320004
1132, 5310005, 5310006, 5320006, 5320005
1133, 5310006, 5310007, 5320007, 5320006
1134, 5310007, 5310008, 5320008, 5320007
1135, 5310008, 5310009, 5320009, 5320008
1136, 5310009, 5310010, 5320010, 5320009
1137, 5310010, 5310011, 5320011, 5320010
1138, 5310011, 5310012, 5320012, 5320011
1139, 5310012, 5310013, 5320013, 5320012
1140, 5310013, 5310014, 5320014, 5320013
1141, 5310014, 5310015, 5320015, 5320014
1142, 5310015, 5310016, 5320016, 5320015
1143, 5310016, 5310017, 5320017, 5320016
1144, 5310017, 5310018, 5320018, 5320017
1145, 5310018, 5310019, 5320019, 5320018
1146, 5310019, 5310020, 5320020, 5320019
1147, 5310020, 5310021, 5320021, 5320020
1148, 5310021, 5310022, 5320022, 5320021
1149, 5310022, 5310023, 5320023, 5320022
1150, 5310023, 5310024, 5320024, 5320023
1151, 5310024, 5310025, 5320025, 5320024
1152, 5310025, 5310026, 5320026, 5320025
1153, 320001, 320002, 330002, 330001
1154, 320002, 320003, 330003, 330002
1155, 320003, 320004, 330004, 330003
1156, 320004, 320005, 330005, 330004
1157, 320005, 320006, 330006, 330005
1158, 320006, 320007, 330007, 330006
1159, 320007, 320008, 330008, 330007
1160, 320008, 320009, 330009, 330008
1161, 320009, 320010, 330010, 330009
1162, 320010, 320011, 330011, 330010
1163, 5320000, 5320001, 5330001, 5330000
1164, 5320001, 5320002, 5330002, 5330001
1165, 5320002, 5320003, 5330003, 5330002
1166, 5320003, 5320004, 5330004, 5330003
1167, 5320004, 5320005, 5330005, 5330004
1168, 5320005, 5320006, 5330006, 5330005
1169, 5320006, 5320007, 5330007, 5330006
1170, 5320007, 5320008, 5330008, 5330007
1171, 5320008, 5320009, 5330009, 5330008
1172, 5320009, 5320010, 5330010, 5330009
1173, 5320010, 5320011, 5330011, 5330010
1174, 5320011, 5320012, 5330012, 5330011
1175, 5320012, 5320013, 5330013, 5330012
1176, 5320013, 5320014, 5330014, 5330013
1177, 5320014, 5320015, 5330015, 5330014
1178, 5320015, 5320016, 5330016, 5330015
1179, 5320016, 5320017, 5330017, 5330016
1180, 5320017, 5320018, 5330018, 5330017
1181, 5320018, 5320019, 5330019, 5330018
1182, 5320019, 5320020, 5330020, 5330019
1183, 5320020, 5320021, 5330021, 5330020
1184, 5320021, 5320022, 5330022, 5330021
1185, 5320022, 5320023, 5330023, 5330022
1186, 5320023, 5320024, 5330024, 5330023
1187, 5320024, 5320025, 5330025, 5330024
1188, 5320025, 5320026, 5330026, 5330025
1189, 330001, 330002, 340002, 340001
1190, 330002, 330003, 340003, 340002
1191, 330003, 330004, 340004, 340003
1192, 330004, 330005, 340005, 340004
1193, 330005, 330006, 340006, 340005
1194, 330006, 330007, 340007, 340006
1195, 330007, 330008, 340008, 340007
1196, 330008, 330009, 340009, 340008
1197, 330009, 330010, 340010, 340009
1198, 330010, 330011, 340011, 340010
1199, 5330000, 5330001, 5340001, 5340000
1200, 5330001, 5330002, 5340002, 5340001
1201, 5330002, 5330003, 5340003, 5340002
1202, 5330003, 5330004, 5340004, 5340003
1203, 5330004, 5330005, 5340005, 5340004
1204, 5330005, 5330006, 5340006, 5340005
1205, 5330006, 5330007, 5340007, 5340006
1206, 5330007, 5330008, 5340008, 5340007
1207, 5330008, 5330009, 5340009, 5340008
1208, 5330009, 5330010, 5340010, 5340009
1209, 5330010, 5330011, 5340011, 5340010
1210, 5330011, 5330012, 5340012, 5340011
1211, 5330012, 5330013, 5340013, 5340012
1212, 5330013, 5330014, 5340014, 5340013
1213, 5330014, 5330015, 5340015, 5340014
1214, 5330015, 5330016, 5340016, 5340015
1215, 5330016, 5330017, 5340017, 5340016
1216, 5330017, 5330018, 5340018, 5340017
1217, 5330018, 5330019, 5340019, 5340018
1218, 5330019, 5330020, 5340020, 5340019
1219, 5330020, 5330021, 5340021, 5340020
1220, 5330021, 5330022, 5340022, 5340021
1221, 5330022, 5330023, 5340023, 5340022
1222, 5330023, 5330024, 5340024, 5340023
1223, 5330024, 5330025, 5340025, 5340024
1224, 5330025, 5330026, 5340026, 5340025
1225, 340001, 340002, 350002, 350001
1226, 340002, 340003, 350003, 350002
1227, 340003, 340004, 350004, 350003
1228, 340004, 340005, 350005, 350004
1229, 340005, 340006, 350006, 350005
1230, 340006, 340007, 350007, 350006
1231, 340007, 340008, 350008, 350007
1232, 340008, 340009, 350009, 350008
1233, 340009, 340010, 350010, 350009
1234, 340010, 340011, 350011, 350010
1235, 5340000, 5340001, 5350001, 5350000
1236, 5340001, 5340002, 5350002, 5350001
1237, 5340002, 5340003, 5350003, 5350002
1238, 5340003, 5340004, 5350004, 5350003
1239, 5340004, 5340005, 5350005, 5350004
1240, 5340005, 5340006, 5350006, 5350005
1241, 5340006, 5340007, 5350007, 5350006
1242, 5340007, 5340008, 5350008, 5350007
1243, 5340008, 5340009, 5350009, 5350008
1244, 5340009, 5340010, 5350010, 5350009
1245, 5340010, 5340011, 5350011, 5350010
1246, 5340011, 5340012, 5350012, 5350011
1247, 5340012, 5340013, 5350013, 5350012
1248, 5340013, 5340014, 5350014, 5350013
1249, 5340014, 5340015, 5350015, 5350014
1250, 5340015, 5340016, 5350016, 5350015
1251, 5340016, 5340017, 5350017, 5350016
1252, 5340017, 5340018, 5350018, 5350017
1253, 5340018, 5340019, 5350019, 5350018
1254, 5340019, 5340020, 5350020, 5350019
1255, 5340020, 5340021, 5350021, 5350020
1256, 5340021, 5340022, 5350022, 5350021
1257, 5340022, 5340023, 5350023, 5350022
1258, 5340023, 5340024, 5350024, 5350023
1259, 5340024, 5340025, 5350025, 5350024
1260, 5340025, 5340026, 5350026, 5350025
1261, 350001, 350002, 360002, 360001
1262, 350002, 350003, 360003, 360002
1263, 350003, 350004, 360004, 360003
1264, 350004, 350005, 360005, 360004
1265, 350005, 350006, 360006, 360005
1266, 350006, 350007, 360007, 360006
1267, 350007, 350008, 360008, 360007
1268, 350008, 350009, 360009, 360008
1269, 350009, 350010, 360010, 360009
1270, 350010, 350011, 360011, 360010
1271, 5350000, 5350001, 5360001, 5360000
1272, 5350001, 5350002, 5360002, 5360001
1273, 5350002, 5350003, 5360003, 5360002
1274, 5350003, 5350004, 5360004, 5360003
1275, 5350004, 5350005, 5360005, 5360004
1276, 5350005, 5350006, 5360006, 5360005
1277, 5350006, 5350007, 5360007, 5360006
1278, 5350007, 5350008, 5360008, 5360007
1279, 5350008, 5350009, 5360009, 5360008
1280, 5350009, 5350010, 5360010, 5360009
1281, 5350010, 5350011, 5360011, 5360010
1282, 5350011, 5350012, 5360012, 5360011
1283, 5350012, 5350013, 5360013, 5360012
1284, 5350013, 5350014, 5360014, 5360013
1285, 5350014, 5350015, 5360015, 5360014
1286, 5350015, 5350016, 5360016, 5360015
1287, 5350016, 5350017, 5360017, 5360016
1288, 5350017, 5350018, 5360018, 5360017
1289, 5350018, 5350019, 5360019, 5360018
1290, 5350019, 5350020, 5360020, 5360019
1291, 5350020, 5350021, 5360021, 5360020
1292, 5350021, 5350022, 5360022, 5360021
1293, 5350022, 5350023, 5360023, 5360022
1294, 5350023, 5350024, 5360024, 5360023
1295, 5350024, 5350025, 5360025, 5360024
1296, 5350025, 5350026, 5360026, 5360025
1297, 360001, 360002, 370002, 370001
1298, 360002, 360003, 370003, 370002
1299, 360003, 360004, 370004, 370003
1300, 360004, 360005, 370005, 370004
1301, 360005, 360006, 370006, 370005
1302, 360006, 360007, 370007, 370006
1303, 360007, 360008, 370008, 370007
1304, 360008, 360009, 370009, 370008
1305, 360009, 360010, 370010, 370009
1306, 360010, 360011, 370011, 370010
1307, 5360000, 5360001, 5370001, 5370000
1308, 5360001, 5360002, 5370002, 5370001
1309, 5360002, 5360003, 5370003, 5370002
1310, 5360003, 5360004, 5370004, 5370003
1311, 5360004, 5360005, 5370005, 5370004
1312, 5360005, 5360006, 5370006, 5370005
1313, 5360006, 5360007, 5370007, 5370006
1314, 5360007, 5360008, 5370008, 5370007
1315, 5360008, 5360009, 5370009, 5370008
1316, 5360009, 5360010, 5370010, 5370009
1317, 5360010, 5360011, 5370011, 5370010
1318, 5360011, 5360012, 5370012, 5370011
1319, 5360012, 5360013, 5370013, 5370012
1320, 5360013, 5360014, 5370014, 5370013
1321, 5360014, 5360015, 5370015, 5370014
1322, 5360015, 5360016, 5370016, 5370015
1323, 5360016, 5360017, 5370017, 5370016
1324, 5360017, 5360018, 5370018, 5370017
1325, 5360018, 5360019, 5370019, 5370018
1326, 5360019, 5360020, 5370020, 5370019
1327, 5360020, 5360021, 5370021, 5370020
1328, 5360021, 5360022, 5370022, 5370021
1329, 5360022, 5360023, 5370023, 5370022
1330, 5360023, 5360024, 5370024, 5370023
1331, 5360024, 5360025, 5370025, 5370024
1332, 5360025, 5360026, 5370026, 5370025
1333, 370001, 370002, 380002, 380001
1334, 370002, 370003, 380003, 380002
1335, 370003, 370004, 380004, 380003
1336, 370004, 370005, 380005, 380004
1337, 370005, 370006, 380006, 380005
1338, 370006, 370007, 380007, 380006
1339, 370007, 370008, 380008, 380007
1340, 370008, 370009, 380009, 380008
1341, 370009, 370010, 380010, 380009
1342, 370010, 370011, 380011, 380010
1343, 5370000, 5370001, 5380001, 5380000
1344, 5370001, 5370002, 5380002, 5380001
1345, 5370002, 5370003, 5380003, 5380002
1346, 5370003, 5370004, 5380004, 5380003
1347, 5370004, 5370005, 5380005, 5380004
1348, 5370005, 5370006, 5380006, 5380005
1349, 5370006, 5370007, 5380007, 5380006
1350, 5370007, 5370008, 5380008, 5380007
1351, 5370008, 5370009, 5380009, 5380008
1352, 5370009, 5370010, 5380010, 5380009
1353, 5370010, 5370011, 5380011, 5380010
1354, 5370011, 5370012, 5380012, 5380011
1355, 5370012, 5370013, 5380013, 5380012
1356, 5370013, 5370014, 5380014, 5380013
1357, 5370014, 5370015, 5380015, 5380014
1358, 5370015, 5370016, 5380016, 5380015
1359, 5370016, 5370017, 5380017, 5380016
1360, 5370017, 5370018, 5380018, 5380017
1361, 5370018, 5370019, 5380019, 5380018
1362, 5370019, 5370020, 5380020, 5380019
1363, 5370020, 5370021, 5380021, 5380020
1364, 5370021, 5370022, 5380022, 5380021
1365, 5370022, 5370023, 5380023, 5380022
1366, 5370023, 5370024, 5380024, 5380023
1367, 5370024, 5370025, 5380025, 5380024
1368, 5370025, 5370026, 5380026, 5380025
*ELEMENT, TYPE=COHAX4
1369, 11, 10011, 5010000, 5000000
1370, 10011, 20011, 5020000, 5010000
1371, 20011, 30011, 5030000, 5020000
1372, 30011, 40011, 5040000, 5030000
1373, 40011, 50011, 5050000, 5040000
1374, 50011, 60011, 5060000, 5050000
1375, 60011, 70011, 5070000, 5060000
1376, 70011, 80011, 5080000, 5070000
1377, 80011, 90011, 5090000, 5080000
1378, 90011, 100011, 5100000, 5090000
1379, 100011, 110011, 5110000, 5100000
1380, 110011, 120011, 5120000, 5110000
1381, 120011, 130011, 5130000, 5120000
1382, 130011, 140011, 5140000, 5130000
1383, 140011, 150011, 5150000, 5140000
1384, 150011, 160011, 5160000, 5150000
1385, 160011, 170011, 5170000, 5160000
1386, 170011, 180011, 5180000, 5170000
1387, 180011, 190011, 5190000, 5180000
1388, 190011, 200011, 5200000, 5190000
1389, 200011, 210011, 5210000, 5200000
1390, 210011, 220011, 5220000, 5210000
1391, 220011, 230011, 5230000, 5220000
1392, 230011, 240011, 5240000, 5230000
1393, 240011, 250011, 5250000, 5240000
1394, 250011, 260011, 5260000, 5250000
1395, 260011, 270011, 5270000, 5260000
1396, 270011, 280011, 5280000, 5270000
1397, 280011, 290011, 5290000, 5280000
1398, 290011, 300011, 5300000, 5290000
1399, 300011, 310011, 5310000, 5300000
1400, 310011, 320011, 5320000, 5310000
1401, 320011, 330011, 5330000, 5320000
1402, 330011, 340011, 5340000, 5330000
1403, 340011, 350011, 5350000, 5340000
1404, 350011, 360011, 5360000, 5350000
1405, 360011, 370011, 5370000, 5360000
1406, 370011, 380011, 5380000, 5370000
*ELSET, ELSET=C_STRATUM
937, 938, 939, 940, 941, 942, 943, 944, 945, 946, 973, 974
975, 976, 977, 978, 979, 980, 981, 982, 1009, 1010, 1011, 1012
1013, 1014, 1015, 1016, 1017, 1018, 1045, 1046, 1047, 1048, 1049, 1050
1051, 1052, 1053, 1054, 1081, 1082, 1083, 1084, 1085, 1086, 1087, 1088
1089, 1090, 1117, 1118, 1119, 1120, 1121, 1122, 1123, 1124, 1125, 1126
1153, 1154, 1155, 1156, 1157, 1158, 1159, 1160, 1161, 1162, 1189, 1190
1191, 1192, 1193, 1194, 1195, 1196, 1197, 1198, 1225, 1226, 1227, 1228
1229, 1230, 1231, 1232, 1233, 1234, 1261, 1262, 1263, 1264, 1265, 1266
1267, 1268, 1269, 1270, 1297, 1298, 1299, 1300, 1301, 1302, 1303, 1304
1305, 1306, 1333, 1334, 1335, 1336, 1337, 1338, 1339, 1340, 1341, 1342
*ELSET, ELSET=O_STRATUM
947, 948, 949, 950, 951, 952, 953, 954, 955, 956, 957, 958
959, 960, 961, 962, 963, 964, 965, 966, 967, 968, 969, 970
971, 972, 983, 984, 985, 986, 987, 988, 989, 990, 991, 992
993, 994, 995, 996, 997, 998, 999, 1000, 1001, 1002, 1003, 1004
1005, 1006, 1007, 1008, 1019, 1020, 1021, 1022, 1023, 1024, 1025, 1026
1027, 1028, 1029, 1030, 1031, 1032, 1033, 1034, 1035, 1036, 1037, 1038
1039, 1040, 1041, 1042, 1043, 1044, 1055, 1056, 1057, 1058, 1059, 1060
1061, 1062, 1063, 1064, 1065, 1066, 1067, 1068, 1069, 1070, 1071, 1072
1073, 1074, 1075, 1076, 1077, 1078, 1079, 1080, 1091, 1092, 1093, 1094
1095, 1096, 1097, 1098, 1099, 1100, 1101, 1102, 1103, 1104, 1105, 1106
1107, 1108, 1109, 1110, 1111, 1112, 1113, 1114, 1115, 1116, 1127, 1128
1129, 1130, 1131, 1132, 1133, 1134, 1135, 1136, 1137, 1138, 1139, 1140
1141, 1142, 1143, 1144, 1145, 1146, 1147, 1148, 1149, 1150, 1151, 1152
1163, 1164, 1165, 1166, 1167, 1168, 1169, 1170, 1171, 1172, 1173, 1174
1175, 1176, 1177, 1178, 1179, 1180, 1181, 1182, 1183, 1184, 1185, 1186
1187, 1188, 1199, 1200, 1201, 1202, 1203, 1204, 1205, 1206, 1207, 1208
1209, 1210, 1211, 1212, 1213, 1214, 1215, 1216, 1217, 1218, 1219, 1220
1221, 1222, 1223, 1224, 1235, 1236, 1237, 1238, 1239, 1240, 1241, 1242
1243, 1244, 1245, 1246, 1247, 1248, 1249, 1250, 1251, 1252, 1253, 1254
1255, 1256, 1257, 1258, 1259, 1260, 1271, 1272, 1273, 1274, 1275, 1276
1277, 1278, 1279, 1280, 1281, 1282, 1283, 1284, 1285, 1286, 1287, 1288
1289, 1290, 1291, 1292, 1293, 1294, 1295, 1296, 1307, 1308, 1309, 1310
1311, 1312, 1313, 1314, 1315, 1316, 1317, 1318, 1319, 1320, 1321, 1322
1323, 1324, 1325, 1326, 1327, 1328, 1329, 1330, 1331, 1332, 1343, 1344
1345, 1346, 1347, 1348, 1349, 1350, 1351, 1352, 1353, 1354, 1355, 1356
1357, 1358, 1359, 1360, 1361, 1362, 1363, 1364, 1365, 1366, 1367, 1368
*ELSET, ELSET=C_EPIDERMIS
505, 506, 507, 508, 509, 510, 511, 512, 513, 514, 541, 542
543, 544, 545, 546, 547, 548, 549, 550, 577, 578, 579, 580
581, 582, 583, 584, 585, 586, 613, 614, 615, 616, 617, 618
619, 620, 621, 622, 649, 650, 651, 652, 653, 654, 655, 656
657, 658, 685, 686, 687, 688, 689, 690, 691, 692, 693, 694
721, 722, 723, 724, 725, 726, 727, 728, 729, 730, 757, 758
759, 760, 761, 762, 763, 764, 765, 766, 793, 794, 795, 796
797, 798, 799, 800, 801, 802, 829, 830, 831, 832, 833, 834
835, 836, 837, 838, 865, 866, 867, 868, 869, 870, 871, 872
873, 874, 901, 902, 903, 904, 905, 906, 907, 908, 909, 910
*ELSET, ELSET=O_EPIDERMIS
515, 516, 517, 518, 519, 520, 521, 522, 523, 524, 525, 526
527, 528, 529, 530, 531, 532, 533, 534, 535, 536, 537, 538
539, 540, 551, 552, 553, 554, 555, 556, 557, 558, 559, 560
561, 562, 563, 564, 565, 566, 567, 568, 569, 570, 571, 572
573, 574, 575, 576, 587, 588, 589, 590, 591, 592, 593, 594
595, 596, 597, 598, 599, 600, 601, 602, 603, 604, 605, 606
607, 608, 609, 610, 611, 612, 623, 624, 625, 626, 627, 628
629, 630, 631, 632, 633, 634, 635, 636, 637, 638, 639, 640
641, 642, 643, 644, 645, 646, 647, 648, 659, 660, 661, 662
663, 664, 665, 666, 667, 668, 669, 670, 671, 672, 673, 674
675, 676, 677, 678, 679, 680, 681, 682, 683, 684, 695, 696
697, 698, 699, 700, 701, 702, 703, 704, 705, 706, 707, 708
709, 710, 711, 712, 713, 714, 715, 716, 717, 718, 719, 720
731, 732, 733, 734, 735, 736, 737, 738, 739, 740, 741, 742
743, 744, 745, 746, 747, 748, 749, 750, 751, 752, 753, 754
755, 756, 767, 768, 769, 770, 771, 772, 773, 774, 775, 776
777, 778, 779, 780, 781, 782, 783, 784, 785, 786, 787, 788
789, 790, 791, 792, 803, 804, 805, 806, 807, 808, 809, 810
811, 812, 813, 814, 815, 816, 817, 818, 819, 820, 821, 822
823, 824, 825, 826, 827, 828, 839, 840, 841, 842, 843, 844
845, 846, 847, 848, 849, 850, 851, 852, 853, 854, 855, 856
857, 858, 859, 860, 861, 862, 863, 864, 875, 876, 877, 878
879, 880, 881, 882, 883, 884, 885, 886, 887, 888, 889, 890
891, 892, 893, 894, 895, 896, 897, 898, 899, 900, 911, 912
913, 914, 915, 916, 917, 918, 919, 920, 921, 922, 923, 924
925, 926, 927, 928, 929, 930, 931, 932, 933, 934, 935, 936
*ELSET, ELSET=C_DERMIS
1, 2, 3, 4, 5, 6, 7, 8, 9, 10, 37, 38
39, 40, 41, 42, 43, 44, 45, 46, 73, 74, 75, 76
77, 78, 79, 80, 81, 82, 109, 110, 111, 112, 113, 114
115, 116, 117, 118, 145, 146, 147, 148, 149, 150, 151, 152
153, 154, 181, 182, 183, 184, 185, 186, 187, 188, 189, 190
217, 218, 219, 220, 221, 222, 223, 224, 225, 226, 253, 254
255, 256, 257, 258, 259, 260, 261, 262, 289, 290, 291, 292
293, 294, 295, 296, 297, 298, 325, 326, 327, 328, 329, 330
331, 332, 333, 334, 361, 362, 363, 364, 365, 366, 367, 368
369, 370, 397, 398, 399, 400, 401, 402, 403, 404, 405, 406
433, 434, 435, 436, 437, 438, 439, 440, 441, 442, 469, 470
471, 472, 473, 474, 475, 476, 477, 478
*ELSET, ELSET=O_DERMIS
11, 12, 13, 14, 15, 16, 17, 18, 19, 20, 21, 22
23, 24, 25, 26, 27, 28, 29, 30, 31, 32, 33, 34
35, 36, 47, 48, 49, 50, 51, 52, 53, 54, 55, 56
57, 58, 59, 60, 61, 62, 63, 64, 65, 66, 67, 68
69, 70, 71, 72, 83, 84, 85, 86, 87, 88, 89, 90
91, 92, 93, 94, 95, 96, 97, 98, 99, 100, 101, 102
103, 104, 105, 106, 107, 108, 119, 120, 121, 122, 123, 124
125, 126, 127, 128, 129, 130, 131, 132, 133, 134, 135, 136
137, 138, 139, 140, 141, 142, 143, 144, 155, 156, 157, 158
159, 160, 161, 162, 163, 164, 165, 166, 167, 168, 169, 170
171, 172, 173, 174, 175, 176, 177, 178, 179, 180, 191, 192
193, 194, 195, 196, 197, 198, 199, 200, 201, 202, 203, 204
205, 206, 207, 208, 209, 210, 211, 212, 213, 214, 215, 216
227, 228, 229, 230, 231, 232, 233, 234, 235, 236, 237, 238
239, 240, 241, 242, 243, 244, 245, 246, 247, 248, 249, 250
251, 252, 263, 264, 265, 266, 267, 268, 269, 270, 271, 272
273, 274, 275, 276, 277, 278, 279, 280, 281, 282, 283, 284
285, 286, 287, 288, 299, 300, 301, 302, 303, 304, 305, 306
307, 308, 309, 310, 311, 312, 313, 314, 315, 316, 317, 318
319, 320, 321, 322, 323, 324, 335, 336, 337, 338, 339, 340
341, 342, 343, 344, 345, 346, 347, 348, 349, 350, 351, 352
353, 354, 355, 356, 357, 358, 359, 360, 371, 372, 373, 374
375, 376, 377, 378, 379, 380, 381, 382, 383, 384, 385, 386
387, 388, 389, 390, 391, 392, 393, 394, 395, 396, 407, 408
409, 410, 411, 412, 413, 414, 415, 416, 417, 418, 419, 420
421, 422, 423, 424, 425, 426, 427, 428, 429, 430, 431, 432
443, 444, 445, 446, 447, 448, 449, 450, 451, 452, 453, 454
455, 456, 457, 458, 459, 460, 461, 462, 463, 464, 465, 466
467, 468, 479, 480, 481, 482, 483, 484, 485, 486, 487, 488
489, 490, 491, 492, 493, 494, 495, 496, 497, 498, 499, 500
501, 502, 503, 504
*ELSET, ELSET=CORE
C_STRATUM, C_EPIDERMIS, C_DERMIS
*ELSET, ELSET=OUTER
O_STRATUM, O_EPIDERMIS, O_DERMIS
*ELSET, ELSET=BULK
CORE, OUTER
*ELSET, ELSET=COH, GENERATE
1369, 1406, 1
*SURFACE, TYPE=ELEMENT, NAME=SKIN_SURF
BULK,
*NSET, NSET=NBOT
1, 2, 3, 4, 5, 6, 7, 8, 9, 10, 11, 5000000
5000001, 5000002, 5000003, 5000004, 5000005, 5000006, 5000007, 5000008, 5000009, 5000010, 5000011, 5000012
5000013, 5000014, 5000015, 5000016, 5000017, 5000018, 5000019, 5000020, 5000021, 5000022, 5000023, 5000024
5000025, 5000026
*NSET, NSET=NAXIS, GENERATE
1, 380001, 10000
*NSET, NSET=NRIGHT, GENERATE
5000026, 5380026, 10000
**
** --- Needle: CAX4R solid, rigid body (axis-centered, blunt tip) ---
*NODE
6000000, 0.0000, 1550.0000
6000001, 0.5000, 1550.0000
6000002, 1.0000, 1550.0000
6000003, 1.5000, 1550.0000
6000004, 2.0000, 1550.0000
6000005, 2.5000, 1550.0000
6000006, 3.0000, 1550.0000
6000007, 3.5000, 1550.0000
6000008, 4.0000, 1550.0000
6000009, 4.5000, 1550.0000
6000010, 5.0000, 1550.0000
6001000, 0.0000, 1553.5000
6001001, 0.5583, 1553.5000
6001002, 1.1167, 1553.5000
6001003, 1.6750, 1553.5000
6001004, 2.2333, 1553.5000
6001005, 2.7917, 1553.5000
6001006, 3.3500, 1553.5000
6001007, 3.9083, 1553.5000
6001008, 4.4667, 1553.5000
6001009, 5.0250, 1553.5000
6001010, 5.5833, 1553.5000
6002000, 0.0000, 1557.7000
6002001, 0.6283, 1557.7000
6002002, 1.2567, 1557.7000
6002003, 1.8850, 1557.7000
6002004, 2.5133, 1557.7000
6002005, 3.1417, 1557.7000
6002006, 3.7700, 1557.7000
6002007, 4.3983, 1557.7000
6002008, 5.0267, 1557.7000
6002009, 5.6550, 1557.7000
6002010, 6.2833, 1557.7000
6003000, 0.0000, 1562.7400
6003001, 0.7123, 1562.7400
6003002, 1.4247, 1562.7400
6003003, 2.1370, 1562.7400
6003004, 2.8493, 1562.7400
6003005, 3.5617, 1562.7400
6003006, 4.2740, 1562.7400
6003007, 4.9863, 1562.7400
6003008, 5.6987, 1562.7400
6003009, 6.4110, 1562.7400
6003010, 7.1233, 1562.7400
6004000, 0.0000, 1568.7880
6004001, 0.8131, 1568.7880
6004002, 1.6263, 1568.7880
6004003, 2.4394, 1568.7880
6004004, 3.2525, 1568.7880
6004005, 4.0657, 1568.7880
6004006, 4.8788, 1568.7880
6004007, 5.6919, 1568.7880
6004008, 6.5051, 1568.7880
6004009, 7.3182, 1568.7880
6004010, 8.1313, 1568.7880
6005000, 0.0000, 1576.0456
6005001, 0.9341, 1576.0456
6005002, 1.8682, 1576.0456
6005003, 2.8023, 1576.0456
6005004, 3.7364, 1576.0456
6005005, 4.6705, 1576.0456
6005006, 5.6046, 1576.0456
6005007, 6.5387, 1576.0456
6005008, 7.4727, 1576.0456
6005009, 8.4068, 1576.0456
6005010, 9.3409, 1576.0456
6006000, 0.0000, 1584.7547
6006001, 1.0792, 1584.7547
6006002, 2.1585, 1584.7547
6006003, 3.2377, 1584.7547
6006004, 4.3170, 1584.7547
6006005, 5.3962, 1584.7547
6006006, 6.4755, 1584.7547
6006007, 7.5547, 1584.7547
6006008, 8.6340, 1584.7547
6006009, 9.7132, 1584.7547
6006010, 10.7924, 1584.7547
6007000, 0.0000, 1595.2057
6007001, 1.2534, 1595.2057
6007002, 2.5069, 1595.2057
6007003, 3.7603, 1595.2057
6007004, 5.0137, 1595.2057
6007005, 6.2671, 1595.2057
6007006, 7.5206, 1595.2057
6007007, 8.7740, 1595.2057
6007008, 10.0274, 1595.2057
6007009, 11.2809, 1595.2057
6007010, 12.5343, 1595.2057
6008000, 0.0000, 1607.7468
6008001, 1.4624, 1607.7468
6008002, 2.9249, 1607.7468
6008003, 4.3873, 1607.7468
6008004, 5.8498, 1607.7468
6008005, 7.3122, 1607.7468
6008006, 8.7747, 1607.7468
6008007, 10.2371, 1607.7468
6008008, 11.6996, 1607.7468
6008009, 13.1620, 1607.7468
6008010, 14.6245, 1607.7468
6009000, 0.0000, 1622.7962
6009001, 1.7133, 1622.7962
6009002, 3.4265, 1622.7962
6009003, 5.1398, 1622.7962
6009004, 6.8531, 1622.7962
6009005, 8.5663, 1622.7962
6009006, 10.2796, 1622.7962
6009007, 11.9929, 1622.7962
6009008, 13.7062, 1622.7962
6009009, 15.4194, 1622.7962
6009010, 17.1327, 1622.7962
6010000, 0.0000, 1640.8554
6010001, 2.0143, 1640.8554
6010002, 4.0285, 1640.8554
6010003, 6.0428, 1640.8554
6010004, 8.0570, 1640.8554
6010005, 10.0713, 1640.8554
6010006, 12.0855, 1640.8554
6010007, 14.0998, 1640.8554
6010008, 16.1141, 1640.8554
6010009, 18.1283, 1640.8554
6010010, 20.1426, 1640.8554
6011000, 0.0000, 1660.8554
6011001, 2.3476, 1660.8554
6011002, 4.6952, 1660.8554
6011003, 7.0428, 1660.8554
6011004, 9.3904, 1660.8554
6011005, 11.7379, 1660.8554
6011006, 14.0855, 1660.8554
6011007, 16.4331, 1660.8554
6011008, 18.7807, 1660.8554
6011009, 21.1283, 1660.8554
6011010, 23.4759, 1660.8554
6012000, 0.0000, 1680.8554
6012001, 2.5000, 1680.8554
6012002, 5.0000, 1680.8554
6012003, 7.5000, 1680.8554
6012004, 10.0000, 1680.8554
6012005, 12.5000, 1680.8554
6012006, 15.0000, 1680.8554
6012007, 17.5000, 1680.8554
6012008, 20.0000, 1680.8554
6012009, 22.5000, 1680.8554
6012010, 25.0000, 1680.8554
6013000, 0.0000, 1700.8554
6013001, 2.5000, 1700.8554
6013002, 5.0000, 1700.8554
6013003, 7.5000, 1700.8554
6013004, 10.0000, 1700.8554
6013005, 12.5000, 1700.8554
6013006, 15.0000, 1700.8554
6013007, 17.5000, 1700.8554
6013008, 20.0000, 1700.8554
6013009, 22.5000, 1700.8554
6013010, 25.0000, 1700.8554
6014000, 0.0000, 1720.8554
6014001, 2.5000, 1720.8554
6014002, 5.0000, 1720.8554
6014003, 7.5000, 1720.8554
6014004, 10.0000, 1720.8554
6014005, 12.5000, 1720.8554
6014006, 15.0000, 1720.8554
6014007, 17.5000, 1720.8554
6014008, 20.0000, 1720.8554
6014009, 22.5000, 1720.8554
6014010, 25.0000, 1720.8554
6015000, 0.0000, 1740.8554
6015001, 2.5000, 1740.8554
6015002, 5.0000, 1740.8554
6015003, 7.5000, 1740.8554
6015004, 10.0000, 1740.8554
6015005, 12.5000, 1740.8554
6015006, 15.0000, 1740.8554
6015007, 17.5000, 1740.8554
6015008, 20.0000, 1740.8554
6015009, 22.5000, 1740.8554
6015010, 25.0000, 1740.8554
6016000, 0.0000, 1760.8554
6016001, 2.5000, 1760.8554
6016002, 5.0000, 1760.8554
6016003, 7.5000, 1760.8554
6016004, 10.0000, 1760.8554
6016005, 12.5000, 1760.8554
6016006, 15.0000, 1760.8554
6016007, 17.5000, 1760.8554
6016008, 20.0000, 1760.8554
6016009, 22.5000, 1760.8554
6016010, 25.0000, 1760.8554
6017000, 0.0000, 1780.8554
6017001, 2.5000, 1780.8554
6017002, 5.0000, 1780.8554
6017003, 7.5000, 1780.8554
6017004, 10.0000, 1780.8554
6017005, 12.5000, 1780.8554
6017006, 15.0000, 1780.8554
6017007, 17.5000, 1780.8554
6017008, 20.0000, 1780.8554
6017009, 22.5000, 1780.8554
6017010, 25.0000, 1780.8554
6018000, 0.0000, 1800.8554
6018001, 2.5000, 1800.8554
6018002, 5.0000, 1800.8554
6018003, 7.5000, 1800.8554
6018004, 10.0000, 1800.8554
6018005, 12.5000, 1800.8554
6018006, 15.0000, 1800.8554
6018007, 17.5000, 1800.8554
6018008, 20.0000, 1800.8554
6018009, 22.5000, 1800.8554
6018010, 25.0000, 1800.8554
6019000, 0.0000, 1820.8554
6019001, 2.5000, 1820.8554
6019002, 5.0000, 1820.8554
6019003, 7.5000, 1820.8554
6019004, 10.0000, 1820.8554
6019005, 12.5000, 1820.8554
6019006, 15.0000, 1820.8554
6019007, 17.5000, 1820.8554
6019008, 20.0000, 1820.8554
6019009, 22.5000, 1820.8554
6019010, 25.0000, 1820.8554
6020000, 0.0000, 1840.8554
6020001, 2.5000, 1840.8554
6020002, 5.0000, 1840.8554
6020003, 7.5000, 1840.8554
6020004, 10.0000, 1840.8554
6020005, 12.5000, 1840.8554
6020006, 15.0000, 1840.8554
6020007, 17.5000, 1840.8554
6020008, 20.0000, 1840.8554
6020009, 22.5000, 1840.8554
6020010, 25.0000, 1840.8554
6021000, 0.0000, 1860.8554
6021001, 2.5000, 1860.8554
6021002, 5.0000, 1860.8554
6021003, 7.5000, 1860.8554
6021004, 10.0000, 1860.8554
6021005, 12.5000, 1860.8554
6021006, 15.0000, 1860.8554
6021007, 17.5000, 1860.8554
6021008, 20.0000, 1860.8554
6021009, 22.5000, 1860.8554
6021010, 25.0000, 1860.8554
6022000, 0.0000, 1880.8554
6022001, 2.5000, 1880.8554
6022002, 5.0000, 1880.8554
6022003, 7.5000, 1880.8554
6022004, 10.0000, 1880.8554
6022005, 12.5000, 1880.8554
6022006, 15.0000, 1880.8554
6022007, 17.5000, 1880.8554
6022008, 20.0000, 1880.8554
6022009, 22.5000, 1880.8554
6022010, 25.0000, 1880.8554
6023000, 0.0000, 1900.8554
6023001, 2.5000, 1900.8554
6023002, 5.0000, 1900.8554
6023003, 7.5000, 1900.8554
6023004, 10.0000, 1900.8554
6023005, 12.5000, 1900.8554
6023006, 15.0000, 1900.8554
6023007, 17.5000, 1900.8554
6023008, 20.0000, 1900.8554
6023009, 22.5000, 1900.8554
6023010, 25.0000, 1900.8554
6024000, 0.0000, 1920.8554
6024001, 2.5000, 1920.8554
6024002, 5.0000, 1920.8554
6024003, 7.5000, 1920.8554
6024004, 10.0000, 1920.8554
6024005, 12.5000, 1920.8554
6024006, 15.0000, 1920.8554
6024007, 17.5000, 1920.8554
6024008, 20.0000, 1920.8554
6024009, 22.5000, 1920.8554
6024010, 25.0000, 1920.8554
6025000, 0.0000, 1940.8554
6025001, 2.5000, 1940.8554
6025002, 5.0000, 1940.8554
6025003, 7.5000, 1940.8554
6025004, 10.0000, 1940.8554
6025005, 12.5000, 1940.8554
6025006, 15.0000, 1940.8554
6025007, 17.5000, 1940.8554
6025008, 20.0000, 1940.8554
6025009, 22.5000, 1940.8554
6025010, 25.0000, 1940.8554
6026000, 0.0000, 1960.8554
6026001, 2.5000, 1960.8554
6026002, 5.0000, 1960.8554
6026003, 7.5000, 1960.8554
6026004, 10.0000, 1960.8554
6026005, 12.5000, 1960.8554
6026006, 15.0000, 1960.8554
6026007, 17.5000, 1960.8554
6026008, 20.0000, 1960.8554
6026009, 22.5000, 1960.8554
6026010, 25.0000, 1960.8554
6027000, 0.0000, 1980.8554
6027001, 2.5000, 1980.8554
6027002, 5.0000, 1980.8554
6027003, 7.5000, 1980.8554
6027004, 10.0000, 1980.8554
6027005, 12.5000, 1980.8554
6027006, 15.0000, 1980.8554
6027007, 17.5000, 1980.8554
6027008, 20.0000, 1980.8554
6027009, 22.5000, 1980.8554
6027010, 25.0000, 1980.8554
6028000, 0.0000, 2000.8554
6028001, 2.5000, 2000.8554
6028002, 5.0000, 2000.8554
6028003, 7.5000, 2000.8554
6028004, 10.0000, 2000.8554
6028005, 12.5000, 2000.8554
6028006, 15.0000, 2000.8554
6028007, 17.5000, 2000.8554
6028008, 20.0000, 2000.8554
6028009, 22.5000, 2000.8554
6028010, 25.0000, 2000.8554
6029000, 0.0000, 2020.8554
6029001, 2.5000, 2020.8554
6029002, 5.0000, 2020.8554
6029003, 7.5000, 2020.8554
6029004, 10.0000, 2020.8554
6029005, 12.5000, 2020.8554
6029006, 15.0000, 2020.8554
6029007, 17.5000, 2020.8554
6029008, 20.0000, 2020.8554
6029009, 22.5000, 2020.8554
6029010, 25.0000, 2020.8554
6030000, 0.0000, 2040.8554
6030001, 2.5000, 2040.8554
6030002, 5.0000, 2040.8554
6030003, 7.5000, 2040.8554
6030004, 10.0000, 2040.8554
6030005, 12.5000, 2040.8554
6030006, 15.0000, 2040.8554
6030007, 17.5000, 2040.8554
6030008, 20.0000, 2040.8554
6030009, 22.5000, 2040.8554
6030010, 25.0000, 2040.8554
6031000, 0.0000, 2060.8554
6031001, 2.5000, 2060.8554
6031002, 5.0000, 2060.8554
6031003, 7.5000, 2060.8554
6031004, 10.0000, 2060.8554
6031005, 12.5000, 2060.8554
6031006, 15.0000, 2060.8554
6031007, 17.5000, 2060.8554
6031008, 20.0000, 2060.8554
6031009, 22.5000, 2060.8554
6031010, 25.0000, 2060.8554
6032000, 0.0000, 2080.8554
6032001, 2.5000, 2080.8554
6032002, 5.0000, 2080.8554
6032003, 7.5000, 2080.8554
6032004, 10.0000, 2080.8554
6032005, 12.5000, 2080.8554
6032006, 15.0000, 2080.8554
6032007, 17.5000, 2080.8554
6032008, 20.0000, 2080.8554
6032009, 22.5000, 2080.8554
6032010, 25.0000, 2080.8554
6033000, 0.0000, 2100.8554
6033001, 2.5000, 2100.8554
6033002, 5.0000, 2100.8554
6033003, 7.5000, 2100.8554
6033004, 10.0000, 2100.8554
6033005, 12.5000, 2100.8554
6033006, 15.0000, 2100.8554
6033007, 17.5000, 2100.8554
6033008, 20.0000, 2100.8554
6033009, 22.5000, 2100.8554
6033010, 25.0000, 2100.8554
6034000, 0.0000, 2120.8554
6034001, 2.5000, 2120.8554
6034002, 5.0000, 2120.8554
6034003, 7.5000, 2120.8554
6034004, 10.0000, 2120.8554
6034005, 12.5000, 2120.8554
6034006, 15.0000, 2120.8554
6034007, 17.5000, 2120.8554
6034008, 20.0000, 2120.8554
6034009, 22.5000, 2120.8554
6034010, 25.0000, 2120.8554
6035000, 0.0000, 2140.8554
6035001, 2.5000, 2140.8554
6035002, 5.0000, 2140.8554
6035003, 7.5000, 2140.8554
6035004, 10.0000, 2140.8554
6035005, 12.5000, 2140.8554
6035006, 15.0000, 2140.8554
6035007, 17.5000, 2140.8554
6035008, 20.0000, 2140.8554
6035009, 22.5000, 2140.8554
6035010, 25.0000, 2140.8554
6036000, 0.0000, 2160.8554
6036001, 2.5000, 2160.8554
6036002, 5.0000, 2160.8554
6036003, 7.5000, 2160.8554
6036004, 10.0000, 2160.8554
6036005, 12.5000, 2160.8554
6036006, 15.0000, 2160.8554
6036007, 17.5000, 2160.8554
6036008, 20.0000, 2160.8554
6036009, 22.5000, 2160.8554
6036010, 25.0000, 2160.8554
6037000, 0.0000, 2180.8554
6037001, 2.5000, 2180.8554
6037002, 5.0000, 2180.8554
6037003, 7.5000, 2180.8554
6037004, 10.0000, 2180.8554
6037005, 12.5000, 2180.8554
6037006, 15.0000, 2180.8554
6037007, 17.5000, 2180.8554
6037008, 20.0000, 2180.8554
6037009, 22.5000, 2180.8554
6037010, 25.0000, 2180.8554
6038000, 0.0000, 2200.8554
6038001, 2.5000, 2200.8554
6038002, 5.0000, 2200.8554
6038003, 7.5000, 2200.8554
6038004, 10.0000, 2200.8554
6038005, 12.5000, 2200.8554
6038006, 15.0000, 2200.8554
6038007, 17.5000, 2200.8554
6038008, 20.0000, 2200.8554
6038009, 22.5000, 2200.8554
6038010, 25.0000, 2200.8554
6039000, 0.0000, 2220.8554
6039001, 2.5000, 2220.8554
6039002, 5.0000, 2220.8554
6039003, 7.5000, 2220.8554
6039004, 10.0000, 2220.8554
6039005, 12.5000, 2220.8554
6039006, 15.0000, 2220.8554
6039007, 17.5000, 2220.8554
6039008, 20.0000, 2220.8554
6039009, 22.5000, 2220.8554
6039010, 25.0000, 2220.8554
6040000, 0.0000, 2240.8554
6040001, 2.5000, 2240.8554
6040002, 5.0000, 2240.8554
6040003, 7.5000, 2240.8554
6040004, 10.0000, 2240.8554
6040005, 12.5000, 2240.8554
6040006, 15.0000, 2240.8554
6040007, 17.5000, 2240.8554
6040008, 20.0000, 2240.8554
6040009, 22.5000, 2240.8554
6040010, 25.0000, 2240.8554
6041000, 0.0000, 2260.8554
6041001, 2.5000, 2260.8554
6041002, 5.0000, 2260.8554
6041003, 7.5000, 2260.8554
6041004, 10.0000, 2260.8554
6041005, 12.5000, 2260.8554
6041006, 15.0000, 2260.8554
6041007, 17.5000, 2260.8554
6041008, 20.0000, 2260.8554
6041009, 22.5000, 2260.8554
6041010, 25.0000, 2260.8554
6042000, 0.0000, 2280.8554
6042001, 2.5000, 2280.8554
6042002, 5.0000, 2280.8554
6042003, 7.5000, 2280.8554
6042004, 10.0000, 2280.8554
6042005, 12.5000, 2280.8554
6042006, 15.0000, 2280.8554
6042007, 17.5000, 2280.8554
6042008, 20.0000, 2280.8554
6042009, 22.5000, 2280.8554
6042010, 25.0000, 2280.8554
6043000, 0.0000, 2300.8554
6043001, 2.5000, 2300.8554
6043002, 5.0000, 2300.8554
6043003, 7.5000, 2300.8554
6043004, 10.0000, 2300.8554
6043005, 12.5000, 2300.8554
6043006, 15.0000, 2300.8554
6043007, 17.5000, 2300.8554
6043008, 20.0000, 2300.8554
6043009, 22.5000, 2300.8554
6043010, 25.0000, 2300.8554
6044000, 0.0000, 2320.8554
6044001, 2.5000, 2320.8554
6044002, 5.0000, 2320.8554
6044003, 7.5000, 2320.8554
6044004, 10.0000, 2320.8554
6044005, 12.5000, 2320.8554
6044006, 15.0000, 2320.8554
6044007, 17.5000, 2320.8554
6044008, 20.0000, 2320.8554
6044009, 22.5000, 2320.8554
6044010, 25.0000, 2320.8554
6045000, 0.0000, 2340.8554
6045001, 2.5000, 2340.8554
6045002, 5.0000, 2340.8554
6045003, 7.5000, 2340.8554
6045004, 10.0000, 2340.8554
6045005, 12.5000, 2340.8554
6045006, 15.0000, 2340.8554
6045007, 17.5000, 2340.8554
6045008, 20.0000, 2340.8554
6045009, 22.5000, 2340.8554
6045010, 25.0000, 2340.8554
6046000, 0.0000, 2360.8554
6046001, 2.5000, 2360.8554
6046002, 5.0000, 2360.8554
6046003, 7.5000, 2360.8554
6046004, 10.0000, 2360.8554
6046005, 12.5000, 2360.8554
6046006, 15.0000, 2360.8554
6046007, 17.5000, 2360.8554
6046008, 20.0000, 2360.8554
6046009, 22.5000, 2360.8554
6046010, 25.0000, 2360.8554
6047000, 0.0000, 2380.8554
6047001, 2.5000, 2380.8554
6047002, 5.0000, 2380.8554
6047003, 7.5000, 2380.8554
6047004, 10.0000, 2380.8554
6047005, 12.5000, 2380.8554
6047006, 15.0000, 2380.8554
6047007, 17.5000, 2380.8554
6047008, 20.0000, 2380.8554
6047009, 22.5000, 2380.8554
6047010, 25.0000, 2380.8554
6048000, 0.0000, 2400.8554
6048001, 2.5000, 2400.8554
6048002, 5.0000, 2400.8554
6048003, 7.5000, 2400.8554
6048004, 10.0000, 2400.8554
6048005, 12.5000, 2400.8554
6048006, 15.0000, 2400.8554
6048007, 17.5000, 2400.8554
6048008, 20.0000, 2400.8554
6048009, 22.5000, 2400.8554
6048010, 25.0000, 2400.8554
6049000, 0.0000, 2420.8554
6049001, 2.5000, 2420.8554
6049002, 5.0000, 2420.8554
6049003, 7.5000, 2420.8554
6049004, 10.0000, 2420.8554
6049005, 12.5000, 2420.8554
6049006, 15.0000, 2420.8554
6049007, 17.5000, 2420.8554
6049008, 20.0000, 2420.8554
6049009, 22.5000, 2420.8554
6049010, 25.0000, 2420.8554
6050000, 0.0000, 2440.8554
6050001, 2.5000, 2440.8554
6050002, 5.0000, 2440.8554
6050003, 7.5000, 2440.8554
6050004, 10.0000, 2440.8554
6050005, 12.5000, 2440.8554
6050006, 15.0000, 2440.8554
6050007, 17.5000, 2440.8554
6050008, 20.0000, 2440.8554
6050009, 22.5000, 2440.8554
6050010, 25.0000, 2440.8554
6051000, 0.0000, 2460.8554
6051001, 2.5000, 2460.8554
6051002, 5.0000, 2460.8554
6051003, 7.5000, 2460.8554
6051004, 10.0000, 2460.8554
6051005, 12.5000, 2460.8554
6051006, 15.0000, 2460.8554
6051007, 17.5000, 2460.8554
6051008, 20.0000, 2460.8554
6051009, 22.5000, 2460.8554
6051010, 25.0000, 2460.8554
6052000, 0.0000, 2480.8554
6052001, 2.5000, 2480.8554
6052002, 5.0000, 2480.8554
6052003, 7.5000, 2480.8554
6052004, 10.0000, 2480.8554
6052005, 12.5000, 2480.8554
6052006, 15.0000, 2480.8554
6052007, 17.5000, 2480.8554
6052008, 20.0000, 2480.8554
6052009, 22.5000, 2480.8554
6052010, 25.0000, 2480.8554
6053000, 0.0000, 2500.8554
6053001, 2.5000, 2500.8554
6053002, 5.0000, 2500.8554
6053003, 7.5000, 2500.8554
6053004, 10.0000, 2500.8554
6053005, 12.5000, 2500.8554
6053006, 15.0000, 2500.8554
6053007, 17.5000, 2500.8554
6053008, 20.0000, 2500.8554
6053009, 22.5000, 2500.8554
6053010, 25.0000, 2500.8554
6054000, 0.0000, 2520.8554
6054001, 2.5000, 2520.8554
6054002, 5.0000, 2520.8554
6054003, 7.5000, 2520.8554
6054004, 10.0000, 2520.8554
6054005, 12.5000, 2520.8554
6054006, 15.0000, 2520.8554
6054007, 17.5000, 2520.8554
6054008, 20.0000, 2520.8554
6054009, 22.5000, 2520.8554
6054010, 25.0000, 2520.8554
6055000, 0.0000, 2540.8554
6055001, 2.5000, 2540.8554
6055002, 5.0000, 2540.8554
6055003, 7.5000, 2540.8554
6055004, 10.0000, 2540.8554
6055005, 12.5000, 2540.8554
6055006, 15.0000, 2540.8554
6055007, 17.5000, 2540.8554
6055008, 20.0000, 2540.8554
6055009, 22.5000, 2540.8554
6055010, 25.0000, 2540.8554
6056000, 0.0000, 2550.0000
6056001, 2.5000, 2550.0000
6056002, 5.0000, 2550.0000
6056003, 7.5000, 2550.0000
6056004, 10.0000, 2550.0000
6056005, 12.5000, 2550.0000
6056006, 15.0000, 2550.0000
6056007, 17.5000, 2550.0000
6056008, 20.0000, 2550.0000
6056009, 22.5000, 2550.0000
6056010, 25.0000, 2550.0000
9999, 0.0, 2550.0000
*NSET, NSET=NREF
9999,
*ELEMENT, TYPE=CAX4R
1407, 6000000, 6000001, 6001001, 6001000
1408, 6000001, 6000002, 6001002, 6001001
1409, 6000002, 6000003, 6001003, 6001002
1410, 6000003, 6000004, 6001004, 6001003
1411, 6000004, 6000005, 6001005, 6001004
1412, 6000005, 6000006, 6001006, 6001005
1413, 6000006, 6000007, 6001007, 6001006
1414, 6000007, 6000008, 6001008, 6001007
1415, 6000008, 6000009, 6001009, 6001008
1416, 6000009, 6000010, 6001010, 6001009
1417, 6001000, 6001001, 6002001, 6002000
1418, 6001001, 6001002, 6002002, 6002001
1419, 6001002, 6001003, 6002003, 6002002
1420, 6001003, 6001004, 6002004, 6002003
1421, 6001004, 6001005, 6002005, 6002004
1422, 6001005, 6001006, 6002006, 6002005
1423, 6001006, 6001007, 6002007, 6002006
1424, 6001007, 6001008, 6002008, 6002007
1425, 6001008, 6001009, 6002009, 6002008
1426, 6001009, 6001010, 6002010, 6002009
1427, 6002000, 6002001, 6003001, 6003000
1428, 6002001, 6002002, 6003002, 6003001
1429, 6002002, 6002003, 6003003, 6003002
1430, 6002003, 6002004, 6003004, 6003003
1431, 6002004, 6002005, 6003005, 6003004
1432, 6002005, 6002006, 6003006, 6003005
1433, 6002006, 6002007, 6003007, 6003006
1434, 6002007, 6002008, 6003008, 6003007
1435, 6002008, 6002009, 6003009, 6003008
1436, 6002009, 6002010, 6003010, 6003009
1437, 6003000, 6003001, 6004001, 6004000
1438, 6003001, 6003002, 6004002, 6004001
1439, 6003002, 6003003, 6004003, 6004002
1440, 6003003, 6003004, 6004004, 6004003
1441, 6003004, 6003005, 6004005, 6004004
1442, 6003005, 6003006, 6004006, 6004005
1443, 6003006, 6003007, 6004007, 6004006
1444, 6003007, 6003008, 6004008, 6004007
1445, 6003008, 6003009, 6004009, 6004008
1446, 6003009, 6003010, 6004010, 6004009
1447, 6004000, 6004001, 6005001, 6005000
1448, 6004001, 6004002, 6005002, 6005001
1449, 6004002, 6004003, 6005003, 6005002
1450, 6004003, 6004004, 6005004, 6005003
1451, 6004004, 6004005, 6005005, 6005004
1452, 6004005, 6004006, 6005006, 6005005
1453, 6004006, 6004007, 6005007, 6005006
1454, 6004007, 6004008, 6005008, 6005007
1455, 6004008, 6004009, 6005009, 6005008
1456, 6004009, 6004010, 6005010, 6005009
1457, 6005000, 6005001, 6006001, 6006000
1458, 6005001, 6005002, 6006002, 6006001
1459, 6005002, 6005003, 6006003, 6006002
1460, 6005003, 6005004, 6006004, 6006003
1461, 6005004, 6005005, 6006005, 6006004
1462, 6005005, 6005006, 6006006, 6006005
1463, 6005006, 6005007, 6006007, 6006006
1464, 6005007, 6005008, 6006008, 6006007
1465, 6005008, 6005009, 6006009, 6006008
1466, 6005009, 6005010, 6006010, 6006009
1467, 6006000, 6006001, 6007001, 6007000
1468, 6006001, 6006002, 6007002, 6007001
1469, 6006002, 6006003, 6007003, 6007002
1470, 6006003, 6006004, 6007004, 6007003
1471, 6006004, 6006005, 6007005, 6007004
1472, 6006005, 6006006, 6007006, 6007005
1473, 6006006, 6006007, 6007007, 6007006
1474, 6006007, 6006008, 6007008, 6007007
1475, 6006008, 6006009, 6007009, 6007008
1476, 6006009, 6006010, 6007010, 6007009
1477, 6007000, 6007001, 6008001, 6008000
1478, 6007001, 6007002, 6008002, 6008001
1479, 6007002, 6007003, 6008003, 6008002
1480, 6007003, 6007004, 6008004, 6008003
1481, 6007004, 6007005, 6008005, 6008004
1482, 6007005, 6007006, 6008006, 6008005
1483, 6007006, 6007007, 6008007, 6008006
1484, 6007007, 6007008, 6008008, 6008007
1485, 6007008, 6007009, 6008009, 6008008
1486, 6007009, 6007010, 6008010, 6008009
1487, 6008000, 6008001, 6009001, 6009000
1488, 6008001, 6008002, 6009002, 6009001
1489, 6008002, 6008003, 6009003, 6009002
1490, 6008003, 6008004, 6009004, 6009003
1491, 6008004, 6008005, 6009005, 6009004
1492, 6008005, 6008006, 6009006, 6009005
1493, 6008006, 6008007, 6009007, 6009006
1494, 6008007, 6008008, 6009008, 6009007
1495, 6008008, 6008009, 6009009, 6009008
1496, 6008009, 6008010, 6009010, 6009009
1497, 6009000, 6009001, 6010001, 6010000
1498, 6009001, 6009002, 6010002, 6010001
1499, 6009002, 6009003, 6010003, 6010002
1500, 6009003, 6009004, 6010004, 6010003
1501, 6009004, 6009005, 6010005, 6010004
1502, 6009005, 6009006, 6010006, 6010005
1503, 6009006, 6009007, 6010007, 6010006
1504, 6009007, 6009008, 6010008, 6010007
1505, 6009008, 6009009, 6010009, 6010008
1506, 6009009, 6009010, 6010010, 6010009
1507, 6010000, 6010001, 6011001, 6011000
1508, 6010001, 6010002, 6011002, 6011001
1509, 6010002, 6010003, 6011003, 6011002
1510, 6010003, 6010004, 6011004, 6011003
1511, 6010004, 6010005, 6011005, 6011004
1512, 6010005, 6010006, 6011006, 6011005
1513, 6010006, 6010007, 6011007, 6011006
1514, 6010007, 6010008, 6011008, 6011007
1515, 6010008, 6010009, 6011009, 6011008
1516, 6010009, 6010010, 6011010, 6011009
1517, 6011000, 6011001, 6012001, 6012000
1518, 6011001, 6011002, 6012002, 6012001
1519, 6011002, 6011003, 6012003, 6012002
1520, 6011003, 6011004, 6012004, 6012003
1521, 6011004, 6011005, 6012005, 6012004
1522, 6011005, 6011006, 6012006, 6012005
1523, 6011006, 6011007, 6012007, 6012006
1524, 6011007, 6011008, 6012008, 6012007
1525, 6011008, 6011009, 6012009, 6012008
1526, 6011009, 6011010, 6012010, 6012009
1527, 6012000, 6012001, 6013001, 6013000
1528, 6012001, 6012002, 6013002, 6013001
1529, 6012002, 6012003, 6013003, 6013002
1530, 6012003, 6012004, 6013004, 6013003
1531, 6012004, 6012005, 6013005, 6013004
1532, 6012005, 6012006, 6013006, 6013005
1533, 6012006, 6012007, 6013007, 6013006
1534, 6012007, 6012008, 6013008, 6013007
1535, 6012008, 6012009, 6013009, 6013008
1536, 6012009, 6012010, 6013010, 6013009
1537, 6013000, 6013001, 6014001, 6014000
1538, 6013001, 6013002, 6014002, 6014001
1539, 6013002, 6013003, 6014003, 6014002
1540, 6013003, 6013004, 6014004, 6014003
1541, 6013004, 6013005, 6014005, 6014004
1542, 6013005, 6013006, 6014006, 6014005
1543, 6013006, 6013007, 6014007, 6014006
1544, 6013007, 6013008, 6014008, 6014007
1545, 6013008, 6013009, 6014009, 6014008
1546, 6013009, 6013010, 6014010, 6014009
1547, 6014000, 6014001, 6015001, 6015000
1548, 6014001, 6014002, 6015002, 6015001
1549, 6014002, 6014003, 6015003, 6015002
1550, 6014003, 6014004, 6015004, 6015003
1551, 6014004, 6014005, 6015005, 6015004
1552, 6014005, 6014006, 6015006, 6015005
1553, 6014006, 6014007, 6015007, 6015006
1554, 6014007, 6014008, 6015008, 6015007
1555, 6014008, 6014009, 6015009, 6015008
1556, 6014009, 6014010, 6015010, 6015009
1557, 6015000, 6015001, 6016001, 6016000
1558, 6015001, 6015002, 6016002, 6016001
1559, 6015002, 6015003, 6016003, 6016002
1560, 6015003, 6015004, 6016004, 6016003
1561, 6015004, 6015005, 6016005, 6016004
1562, 6015005, 6015006, 6016006, 6016005
1563, 6015006, 6015007, 6016007, 6016006
1564, 6015007, 6015008, 6016008, 6016007
1565, 6015008, 6015009, 6016009, 6016008
1566, 6015009, 6015010, 6016010, 6016009
1567, 6016000, 6016001, 6017001, 6017000
1568, 6016001, 6016002, 6017002, 6017001
1569, 6016002, 6016003, 6017003, 6017002
1570, 6016003, 6016004, 6017004, 6017003
1571, 6016004, 6016005, 6017005, 6017004
1572, 6016005, 6016006, 6017006, 6017005
1573, 6016006, 6016007, 6017007, 6017006
1574, 6016007, 6016008, 6017008, 6017007
1575, 6016008, 6016009, 6017009, 6017008
1576, 6016009, 6016010, 6017010, 6017009
1577, 6017000, 6017001, 6018001, 6018000
1578, 6017001, 6017002, 6018002, 6018001
1579, 6017002, 6017003, 6018003, 6018002
1580, 6017003, 6017004, 6018004, 6018003
1581, 6017004, 6017005, 6018005, 6018004
1582, 6017005, 6017006, 6018006, 6018005
1583, 6017006, 6017007, 6018007, 6018006
1584, 6017007, 6017008, 6018008, 6018007
1585, 6017008, 6017009, 6018009, 6018008
1586, 6017009, 6017010, 6018010, 6018009
1587, 6018000, 6018001, 6019001, 6019000
1588, 6018001, 6018002, 6019002, 6019001
1589, 6018002, 6018003, 6019003, 6019002
1590, 6018003, 6018004, 6019004, 6019003
1591, 6018004, 6018005, 6019005, 6019004
1592, 6018005, 6018006, 6019006, 6019005
1593, 6018006, 6018007, 6019007, 6019006
1594, 6018007, 6018008, 6019008, 6019007
1595, 6018008, 6018009, 6019009, 6019008
1596, 6018009, 6018010, 6019010, 6019009
1597, 6019000, 6019001, 6020001, 6020000
1598, 6019001, 6019002, 6020002, 6020001
1599, 6019002, 6019003, 6020003, 6020002
1600, 6019003, 6019004, 6020004, 6020003
1601, 6019004, 6019005, 6020005, 6020004
1602, 6019005, 6019006, 6020006, 6020005
1603, 6019006, 6019007, 6020007, 6020006
1604, 6019007, 6019008, 6020008, 6020007
1605, 6019008, 6019009, 6020009, 6020008
1606, 6019009, 6019010, 6020010, 6020009
1607, 6020000, 6020001, 6021001, 6021000
1608, 6020001, 6020002, 6021002, 6021001
1609, 6020002, 6020003, 6021003, 6021002
1610, 6020003, 6020004, 6021004, 6021003
1611, 6020004, 6020005, 6021005, 6021004
1612, 6020005, 6020006, 6021006, 6021005
1613, 6020006, 6020007, 6021007, 6021006
1614, 6020007, 6020008, 6021008, 6021007
1615, 6020008, 6020009, 6021009, 6021008
1616, 6020009, 6020010, 6021010, 6021009
1617, 6021000, 6021001, 6022001, 6022000
1618, 6021001, 6021002, 6022002, 6022001
1619, 6021002, 6021003, 6022003, 6022002
1620, 6021003, 6021004, 6022004, 6022003
1621, 6021004, 6021005, 6022005, 6022004
1622, 6021005, 6021006, 6022006, 6022005
1623, 6021006, 6021007, 6022007, 6022006
1624, 6021007, 6021008, 6022008, 6022007
1625, 6021008, 6021009, 6022009, 6022008
1626, 6021009, 6021010, 6022010, 6022009
1627, 6022000, 6022001, 6023001, 6023000
1628, 6022001, 6022002, 6023002, 6023001
1629, 6022002, 6022003, 6023003, 6023002
1630, 6022003, 6022004, 6023004, 6023003
1631, 6022004, 6022005, 6023005, 6023004
1632, 6022005, 6022006, 6023006, 6023005
1633, 6022006, 6022007, 6023007, 6023006
1634, 6022007, 6022008, 6023008, 6023007
1635, 6022008, 6022009, 6023009, 6023008
1636, 6022009, 6022010, 6023010, 6023009
1637, 6023000, 6023001, 6024001, 6024000
1638, 6023001, 6023002, 6024002, 6024001
1639, 6023002, 6023003, 6024003, 6024002
1640, 6023003, 6023004, 6024004, 6024003
1641, 6023004, 6023005, 6024005, 6024004
1642, 6023005, 6023006, 6024006, 6024005
1643, 6023006, 6023007, 6024007, 6024006
1644, 6023007, 6023008, 6024008, 6024007
1645, 6023008, 6023009, 6024009, 6024008
1646, 6023009, 6023010, 6024010, 6024009
1647, 6024000, 6024001, 6025001, 6025000
1648, 6024001, 6024002, 6025002, 6025001
1649, 6024002, 6024003, 6025003, 6025002
1650, 6024003, 6024004, 6025004, 6025003
1651, 6024004, 6024005, 6025005, 6025004
1652, 6024005, 6024006, 6025006, 6025005
1653, 6024006, 6024007, 6025007, 6025006
1654, 6024007, 6024008, 6025008, 6025007
1655, 6024008, 6024009, 6025009, 6025008
1656, 6024009, 6024010, 6025010, 6025009
1657, 6025000, 6025001, 6026001, 6026000
1658, 6025001, 6025002, 6026002, 6026001
1659, 6025002, 6025003, 6026003, 6026002
1660, 6025003, 6025004, 6026004, 6026003
1661, 6025004, 6025005, 6026005, 6026004
1662, 6025005, 6025006, 6026006, 6026005
1663, 6025006, 6025007, 6026007, 6026006
1664, 6025007, 6025008, 6026008, 6026007
1665, 6025008, 6025009, 6026009, 6026008
1666, 6025009, 6025010, 6026010, 6026009
1667, 6026000, 6026001, 6027001, 6027000
1668, 6026001, 6026002, 6027002, 6027001
1669, 6026002, 6026003, 6027003, 6027002
1670, 6026003, 6026004, 6027004, 6027003
1671, 6026004, 6026005, 6027005, 6027004
1672, 6026005, 6026006, 6027006, 6027005
1673, 6026006, 6026007, 6027007, 6027006
1674, 6026007, 6026008, 6027008, 6027007
1675, 6026008, 6026009, 6027009, 6027008
1676, 6026009, 6026010, 6027010, 6027009
1677, 6027000, 6027001, 6028001, 6028000
1678, 6027001, 6027002, 6028002, 6028001
1679, 6027002, 6027003, 6028003, 6028002
1680, 6027003, 6027004, 6028004, 6028003
1681, 6027004, 6027005, 6028005, 6028004
1682, 6027005, 6027006, 6028006, 6028005
1683, 6027006, 6027007, 6028007, 6028006
1684, 6027007, 6027008, 6028008, 6028007
1685, 6027008, 6027009, 6028009, 6028008
1686, 6027009, 6027010, 6028010, 6028009
1687, 6028000, 6028001, 6029001, 6029000
1688, 6028001, 6028002, 6029002, 6029001
1689, 6028002, 6028003, 6029003, 6029002
1690, 6028003, 6028004, 6029004, 6029003
1691, 6028004, 6028005, 6029005, 6029004
1692, 6028005, 6028006, 6029006, 6029005
1693, 6028006, 6028007, 6029007, 6029006
1694, 6028007, 6028008, 6029008, 6029007
1695, 6028008, 6028009, 6029009, 6029008
1696, 6028009, 6028010, 6029010, 6029009
1697, 6029000, 6029001, 6030001, 6030000
1698, 6029001, 6029002, 6030002, 6030001
1699, 6029002, 6029003, 6030003, 6030002
1700, 6029003, 6029004, 6030004, 6030003
1701, 6029004, 6029005, 6030005, 6030004
1702, 6029005, 6029006, 6030006, 6030005
1703, 6029006, 6029007, 6030007, 6030006
1704, 6029007, 6029008, 6030008, 6030007
1705, 6029008, 6029009, 6030009, 6030008
1706, 6029009, 6029010, 6030010, 6030009
1707, 6030000, 6030001, 6031001, 6031000
1708, 6030001, 6030002, 6031002, 6031001
1709, 6030002, 6030003, 6031003, 6031002
1710, 6030003, 6030004, 6031004, 6031003
1711, 6030004, 6030005, 6031005, 6031004
1712, 6030005, 6030006, 6031006, 6031005
1713, 6030006, 6030007, 6031007, 6031006
1714, 6030007, 6030008, 6031008, 6031007
1715, 6030008, 6030009, 6031009, 6031008
1716, 6030009, 6030010, 6031010, 6031009
1717, 6031000, 6031001, 6032001, 6032000
1718, 6031001, 6031002, 6032002, 6032001
1719, 6031002, 6031003, 6032003, 6032002
1720, 6031003, 6031004, 6032004, 6032003
1721, 6031004, 6031005, 6032005, 6032004
1722, 6031005, 6031006, 6032006, 6032005
1723, 6031006, 6031007, 6032007, 6032006
1724, 6031007, 6031008, 6032008, 6032007
1725, 6031008, 6031009, 6032009, 6032008
1726, 6031009, 6031010, 6032010, 6032009
1727, 6032000, 6032001, 6033001, 6033000
1728, 6032001, 6032002, 6033002, 6033001
1729, 6032002, 6032003, 6033003, 6033002
1730, 6032003, 6032004, 6033004, 6033003
1731, 6032004, 6032005, 6033005, 6033004
1732, 6032005, 6032006, 6033006, 6033005
1733, 6032006, 6032007, 6033007, 6033006
1734, 6032007, 6032008, 6033008, 6033007
1735, 6032008, 6032009, 6033009, 6033008
1736, 6032009, 6032010, 6033010, 6033009
1737, 6033000, 6033001, 6034001, 6034000
1738, 6033001, 6033002, 6034002, 6034001
1739, 6033002, 6033003, 6034003, 6034002
1740, 6033003, 6033004, 6034004, 6034003
1741, 6033004, 6033005, 6034005, 6034004
1742, 6033005, 6033006, 6034006, 6034005
1743, 6033006, 6033007, 6034007, 6034006
1744, 6033007, 6033008, 6034008, 6034007
1745, 6033008, 6033009, 6034009, 6034008
1746, 6033009, 6033010, 6034010, 6034009
1747, 6034000, 6034001, 6035001, 6035000
1748, 6034001, 6034002, 6035002, 6035001
1749, 6034002, 6034003, 6035003, 6035002
1750, 6034003, 6034004, 6035004, 6035003
1751, 6034004, 6034005, 6035005, 6035004
1752, 6034005, 6034006, 6035006, 6035005
1753, 6034006, 6034007, 6035007, 6035006
1754, 6034007, 6034008, 6035008, 6035007
1755, 6034008, 6034009, 6035009, 6035008
1756, 6034009, 6034010, 6035010, 6035009
1757, 6035000, 6035001, 6036001, 6036000
1758, 6035001, 6035002, 6036002, 6036001
1759, 6035002, 6035003, 6036003, 6036002
1760, 6035003, 6035004, 6036004, 6036003
1761, 6035004, 6035005, 6036005, 6036004
1762, 6035005, 6035006, 6036006, 6036005
1763, 6035006, 6035007, 6036007, 6036006
1764, 6035007, 6035008, 6036008, 6036007
1765, 6035008, 6035009, 6036009, 6036008
1766, 6035009, 6035010, 6036010, 6036009
1767, 6036000, 6036001, 6037001, 6037000
1768, 6036001, 6036002, 6037002, 6037001
1769, 6036002, 6036003, 6037003, 6037002
1770, 6036003, 6036004, 6037004, 6037003
1771, 6036004, 6036005, 6037005, 6037004
1772, 6036005, 6036006, 6037006, 6037005
1773, 6036006, 6036007, 6037007, 6037006
1774, 6036007, 6036008, 6037008, 6037007
1775, 6036008, 6036009, 6037009, 6037008
1776, 6036009, 6036010, 6037010, 6037009
1777, 6037000, 6037001, 6038001, 6038000
1778, 6037001, 6037002, 6038002, 6038001
1779, 6037002, 6037003, 6038003, 6038002
1780, 6037003, 6037004, 6038004, 6038003
1781, 6037004, 6037005, 6038005, 6038004
1782, 6037005, 6037006, 6038006, 6038005
1783, 6037006, 6037007, 6038007, 6038006
1784, 6037007, 6037008, 6038008, 6038007
1785, 6037008, 6037009, 6038009, 6038008
1786, 6037009, 6037010, 6038010, 6038009
1787, 6038000, 6038001, 6039001, 6039000
1788, 6038001, 6038002, 6039002, 6039001
1789, 6038002, 6038003, 6039003, 6039002
1790, 6038003, 6038004, 6039004, 6039003
1791, 6038004, 6038005, 6039005, 6039004
1792, 6038005, 6038006, 6039006, 6039005
1793, 6038006, 6038007, 6039007, 6039006
1794, 6038007, 6038008, 6039008, 6039007
1795, 6038008, 6038009, 6039009, 6039008
1796, 6038009, 6038010, 6039010, 6039009
1797, 6039000, 6039001, 6040001, 6040000
1798, 6039001, 6039002, 6040002, 6040001
1799, 6039002, 6039003, 6040003, 6040002
1800, 6039003, 6039004, 6040004, 6040003
1801, 6039004, 6039005, 6040005, 6040004
1802, 6039005, 6039006, 6040006, 6040005
1803, 6039006, 6039007, 6040007, 6040006
1804, 6039007, 6039008, 6040008, 6040007
1805, 6039008, 6039009, 6040009, 6040008
1806, 6039009, 6039010, 6040010, 6040009
1807, 6040000, 6040001, 6041001, 6041000
1808, 6040001, 6040002, 6041002, 6041001
1809, 6040002, 6040003, 6041003, 6041002
1810, 6040003, 6040004, 6041004, 6041003
1811, 6040004, 6040005, 6041005, 6041004
1812, 6040005, 6040006, 6041006, 6041005
1813, 6040006, 6040007, 6041007, 6041006
1814, 6040007, 6040008, 6041008, 6041007
1815, 6040008, 6040009, 6041009, 6041008
1816, 6040009, 6040010, 6041010, 6041009
1817, 6041000, 6041001, 6042001, 6042000
1818, 6041001, 6041002, 6042002, 6042001
1819, 6041002, 6041003, 6042003, 6042002
1820, 6041003, 6041004, 6042004, 6042003
1821, 6041004, 6041005, 6042005, 6042004
1822, 6041005, 6041006, 6042006, 6042005
1823, 6041006, 6041007, 6042007, 6042006
1824, 6041007, 6041008, 6042008, 6042007
1825, 6041008, 6041009, 6042009, 6042008
1826, 6041009, 6041010, 6042010, 6042009
1827, 6042000, 6042001, 6043001, 6043000
1828, 6042001, 6042002, 6043002, 6043001
1829, 6042002, 6042003, 6043003, 6043002
1830, 6042003, 6042004, 6043004, 6043003
1831, 6042004, 6042005, 6043005, 6043004
1832, 6042005, 6042006, 6043006, 6043005
1833, 6042006, 6042007, 6043007, 6043006
1834, 6042007, 6042008, 6043008, 6043007
1835, 6042008, 6042009, 6043009, 6043008
1836, 6042009, 6042010, 6043010, 6043009
1837, 6043000, 6043001, 6044001, 6044000
1838, 6043001, 6043002, 6044002, 6044001
1839, 6043002, 6043003, 6044003, 6044002
1840, 6043003, 6043004, 6044004, 6044003
1841, 6043004, 6043005, 6044005, 6044004
1842, 6043005, 6043006, 6044006, 6044005
1843, 6043006, 6043007, 6044007, 6044006
1844, 6043007, 6043008, 6044008, 6044007
1845, 6043008, 6043009, 6044009, 6044008
1846, 6043009, 6043010, 6044010, 6044009
1847, 6044000, 6044001, 6045001, 6045000
1848, 6044001, 6044002, 6045002, 6045001
1849, 6044002, 6044003, 6045003, 6045002
1850, 6044003, 6044004, 6045004, 6045003
1851, 6044004, 6044005, 6045005, 6045004
1852, 6044005, 6044006, 6045006, 6045005
1853, 6044006, 6044007, 6045007, 6045006
1854, 6044007, 6044008, 6045008, 6045007
1855, 6044008, 6044009, 6045009, 6045008
1856, 6044009, 6044010, 6045010, 6045009
1857, 6045000, 6045001, 6046001, 6046000
1858, 6045001, 6045002, 6046002, 6046001
1859, 6045002, 6045003, 6046003, 6046002
1860, 6045003, 6045004, 6046004, 6046003
1861, 6045004, 6045005, 6046005, 6046004
1862, 6045005, 6045006, 6046006, 6046005
1863, 6045006, 6045007, 6046007, 6046006
1864, 6045007, 6045008, 6046008, 6046007
1865, 6045008, 6045009, 6046009, 6046008
1866, 6045009, 6045010, 6046010, 6046009
1867, 6046000, 6046001, 6047001, 6047000
1868, 6046001, 6046002, 6047002, 6047001
1869, 6046002, 6046003, 6047003, 6047002
1870, 6046003, 6046004, 6047004, 6047003
1871, 6046004, 6046005, 6047005, 6047004
1872, 6046005, 6046006, 6047006, 6047005
1873, 6046006, 6046007, 6047007, 6047006
1874, 6046007, 6046008, 6047008, 6047007
1875, 6046008, 6046009, 6047009, 6047008
1876, 6046009, 6046010, 6047010, 6047009
1877, 6047000, 6047001, 6048001, 6048000
1878, 6047001, 6047002, 6048002, 6048001
1879, 6047002, 6047003, 6048003, 6048002
1880, 6047003, 6047004, 6048004, 6048003
1881, 6047004, 6047005, 6048005, 6048004
1882, 6047005, 6047006, 6048006, 6048005
1883, 6047006, 6047007, 6048007, 6048006
1884, 6047007, 6047008, 6048008, 6048007
1885, 6047008, 6047009, 6048009, 6048008
1886, 6047009, 6047010, 6048010, 6048009
1887, 6048000, 6048001, 6049001, 6049000
1888, 6048001, 6048002, 6049002, 6049001
1889, 6048002, 6048003, 6049003, 6049002
1890, 6048003, 6048004, 6049004, 6049003
1891, 6048004, 6048005, 6049005, 6049004
1892, 6048005, 6048006, 6049006, 6049005
1893, 6048006, 6048007, 6049007, 6049006
1894, 6048007, 6048008, 6049008, 6049007
1895, 6048008, 6048009, 6049009, 6049008
1896, 6048009, 6048010, 6049010, 6049009
1897, 6049000, 6049001, 6050001, 6050000
1898, 6049001, 6049002, 6050002, 6050001
1899, 6049002, 6049003, 6050003, 6050002
1900, 6049003, 6049004, 6050004, 6050003
1901, 6049004, 6049005, 6050005, 6050004
1902, 6049005, 6049006, 6050006, 6050005
1903, 6049006, 6049007, 6050007, 6050006
1904, 6049007, 6049008, 6050008, 6050007
1905, 6049008, 6049009, 6050009, 6050008
1906, 6049009, 6049010, 6050010, 6050009
1907, 6050000, 6050001, 6051001, 6051000
1908, 6050001, 6050002, 6051002, 6051001
1909, 6050002, 6050003, 6051003, 6051002
1910, 6050003, 6050004, 6051004, 6051003
1911, 6050004, 6050005, 6051005, 6051004
1912, 6050005, 6050006, 6051006, 6051005
1913, 6050006, 6050007, 6051007, 6051006
1914, 6050007, 6050008, 6051008, 6051007
1915, 6050008, 6050009, 6051009, 6051008
1916, 6050009, 6050010, 6051010, 6051009
1917, 6051000, 6051001, 6052001, 6052000
1918, 6051001, 6051002, 6052002, 6052001
1919, 6051002, 6051003, 6052003, 6052002
1920, 6051003, 6051004, 6052004, 6052003
1921, 6051004, 6051005, 6052005, 6052004
1922, 6051005, 6051006, 6052006, 6052005
1923, 6051006, 6051007, 6052007, 6052006
1924, 6051007, 6051008, 6052008, 6052007
1925, 6051008, 6051009, 6052009, 6052008
1926, 6051009, 6051010, 6052010, 6052009
1927, 6052000, 6052001, 6053001, 6053000
1928, 6052001, 6052002, 6053002, 6053001
1929, 6052002, 6052003, 6053003, 6053002
1930, 6052003, 6052004, 6053004, 6053003
1931, 6052004, 6052005, 6053005, 6053004
1932, 6052005, 6052006, 6053006, 6053005
1933, 6052006, 6052007, 6053007, 6053006
1934, 6052007, 6052008, 6053008, 6053007
1935, 6052008, 6052009, 6053009, 6053008
1936, 6052009, 6052010, 6053010, 6053009
1937, 6053000, 6053001, 6054001, 6054000
1938, 6053001, 6053002, 6054002, 6054001
1939, 6053002, 6053003, 6054003, 6054002
1940, 6053003, 6053004, 6054004, 6054003
1941, 6053004, 6053005, 6054005, 6054004
1942, 6053005, 6053006, 6054006, 6054005
1943, 6053006, 6053007, 6054007, 6054006
1944, 6053007, 6053008, 6054008, 6054007
1945, 6053008, 6053009, 6054009, 6054008
1946, 6053009, 6053010, 6054010, 6054009
1947, 6054000, 6054001, 6055001, 6055000
1948, 6054001, 6054002, 6055002, 6055001
1949, 6054002, 6054003, 6055003, 6055002
1950, 6054003, 6054004, 6055004, 6055003
1951, 6054004, 6054005, 6055005, 6055004
1952, 6054005, 6054006, 6055006, 6055005
1953, 6054006, 6054007, 6055007, 6055006
1954, 6054007, 6054008, 6055008, 6055007
1955, 6054008, 6054009, 6055009, 6055008
1956, 6054009, 6054010, 6055010, 6055009
1957, 6055000, 6055001, 6056001, 6056000
1958, 6055001, 6055002, 6056002, 6056001
1959, 6055002, 6055003, 6056003, 6056002
1960, 6055003, 6055004, 6056004, 6056003
1961, 6055004, 6055005, 6056005, 6056004
1962, 6055005, 6055006, 6056006, 6056005
1963, 6055006, 6055007, 6056007, 6056006
1964, 6055007, 6055008, 6056008, 6056007
1965, 6055008, 6055009, 6056009, 6056008
1966, 6055009, 6055010, 6056010, 6056009
*ELSET, ELSET=NEEDLE_EL, GENERATE
1407, 1966, 1
*SURFACE, TYPE=ELEMENT, NAME=NEEDLE
NEEDLE_EL,
*RIGID BODY, ELSET=NEEDLE_EL, REF NODE=NREF
*MATERIAL, NAME=NEEDLE_MAT
*DENSITY
7.9e-15,
*ELASTIC
2e+05, 0.3
*SOLID SECTION, ELSET=NEEDLE_EL, MATERIAL=NEEDLE_MAT
*MATERIAL, NAME=MATC_STRATUM
*DENSITY
1.2e-15,
*DAMPING, ALPHA=5e+04
*USER MATERIAL, CONSTANTS=4
1.0, 0.02, 1.2, 1.5
*DEPVAR, DELETE=1
4
1, DELFLAG, deletion flag
2, LAMMAX, max principal stretch
3, DAMAGE, damage variable
4, JVOL, relative volume
*MATERIAL, NAME=MATC_EPIDERMIS
*DENSITY
1.1e-15,
*DAMPING, ALPHA=5e+04
*USER MATERIAL, CONSTANTS=4
0.1, 0.1, 1.4, 1.9
*DEPVAR, DELETE=1
4
1, DELFLAG, deletion flag
2, LAMMAX, max principal stretch
3, DAMAGE, damage variable
4, JVOL, relative volume
*MATERIAL, NAME=MATC_DERMIS
*DENSITY
1.1e-15,
*DAMPING, ALPHA=5e+04
*USER MATERIAL, CONSTANTS=4
0.02, 1.0, 1.6, 2.5
*DEPVAR, DELETE=1
4
1, DELFLAG, deletion flag
2, LAMMAX, max principal stretch
3, DAMAGE, damage variable
4, JVOL, relative volume
*MATERIAL, NAME=MATO_STRATUM
*DENSITY
1.2e-15,
*DAMPING, ALPHA=5e+04
*HYPERELASTIC, NEO HOOKE
1.0, 0.02
*MATERIAL, NAME=MATO_EPIDERMIS
*DENSITY
1.1e-15,
*DAMPING, ALPHA=5e+04
*HYPERELASTIC, NEO HOOKE
0.1, 0.1
*MATERIAL, NAME=MATO_DERMIS
*DENSITY
1.1e-15,
*DAMPING, ALPHA=5e+04
*HYPERELASTIC, NEO HOOKE
0.02, 1.0
*SECTION CONTROLS, NAME=CORECTRL, DISTORTION CONTROL=YES, HOURGLASS=ENHANCED
*SOLID SECTION, ELSET=C_STRATUM, MATERIAL=MATC_STRATUM, CONTROLS=CORECTRL
*SOLID SECTION, ELSET=C_EPIDERMIS, MATERIAL=MATC_EPIDERMIS, CONTROLS=CORECTRL
*SOLID SECTION, ELSET=C_DERMIS, MATERIAL=MATC_DERMIS, CONTROLS=CORECTRL
*SOLID SECTION, ELSET=O_STRATUM, MATERIAL=MATO_STRATUM
*SOLID SECTION, ELSET=O_EPIDERMIS, MATERIAL=MATO_EPIDERMIS
*SOLID SECTION, ELSET=O_DERMIS, MATERIAL=MATO_DERMIS
*MATERIAL, NAME=COHMAT
*DENSITY
1.1e-15,
*ELASTIC, TYPE=TRACTION
4, 4, 4
*DAMAGE INITIATION, CRITERION=MAXS
2, 2, 2
*DAMAGE EVOLUTION, TYPE=ENERGY
5,
*COHESIVE SECTION, ELSET=COH, MATERIAL=COHMAT, RESPONSE=TRACTION SEPARATION, THICKNESS=SPECIFIED
1,
*SURFACE INTERACTION, NAME=IPROP
*FRICTION
0.1,
*SURFACE BEHAVIOR, PRESSURE-OVERCLOSURE=HARD
*BOUNDARY
NBOT, 2, 2
NAXIS, 1, 1
NRIGHT, 1, 1
NREF, 1, 1
NREF, 6, 6
*AMPLITUDE, NAME=PUSH, DEFINITION=SMOOTH STEP
0.0, 0.0, 0.03, 1.0
*STEP, NAME=PENETRATION
*DYNAMIC, EXPLICIT
, 0.03
*FIXED MASS SCALING, DT=1e-07, TYPE=BELOW MIN
*BOUNDARY, AMPLITUDE=PUSH
NREF, 2, 2, -300.0
*CONTACT
*CONTACT INCLUSIONS, ALL EXTERIOR
*CONTACT PROPERTY ASSIGNMENT
 ,  , IPROP
*OUTPUT, FIELD, NUMBER INTERVAL=30
*ELEMENT OUTPUT, ELSET=BULK
S, LE
*ELEMENT OUTPUT, ELSET=CORE
SDV, STATUS
*ELEMENT OUTPUT, ELSET=COH
SDEG, STATUS
*NODE OUTPUT
U, V
*OUTPUT, HISTORY, TIME INTERVAL=1.0e-4
*NODE OUTPUT, NSET=NREF
U2, V2, RF2
*ENERGY OUTPUT
ALLIE, ALLKE, ALLSE, ALLDMD
*END STEP
