*HEADING
[16] Needle puncture of skin (solid cone) - 3 layers
hyperelastic + cohesive + layer damage(deletion) ; Units um,uN,MPa,s
*NODE
1, 0.0000, 0.0000
2, 5.0000, 0.0000
3, 10.0000, 0.0000
4, 15.0000, 0.0000
5, 20.0000, 0.0000
6, 25.0000, 0.0000
7, 30.0000, 0.0000
8, 35.0000, 0.0000
9, 40.0000, 0.0000
10, 45.0000, 0.0000
11, 50.0000, 0.0000
12, 55.0000, 0.0000
13, 60.0000, 0.0000
14, 65.0000, 0.0000
15, 70.0000, 0.0000
16, 75.0000, 0.0000
17, 80.0000, 0.0000
18, 85.0000, 0.0000
19, 90.0000, 0.0000
20, 95.0000, 0.0000
21, 100.0000, 0.0000
10001, 0.0000, 22.0979
10002, 5.0000, 22.0979
10003, 10.0000, 22.0979
10004, 15.0000, 22.0979
10005, 20.0000, 22.0979
10006, 25.0000, 22.0979
10007, 30.0000, 22.0979
10008, 35.0000, 22.0979
10009, 40.0000, 22.0979
10010, 45.0000, 22.0979
10011, 50.0000, 22.0979
10012, 55.0000, 22.0979
10013, 60.0000, 22.0979
10014, 65.0000, 22.0979
10015, 70.0000, 22.0979
10016, 75.0000, 22.0979
10017, 80.0000, 22.0979
10018, 85.0000, 22.0979
10019, 90.0000, 22.0979
10020, 95.0000, 22.0979
10021, 100.0000, 22.0979
20001, 0.0000, 62.0979
20002, 5.0000, 62.0979
20003, 10.0000, 62.0979
20004, 15.0000, 62.0979
20005, 20.0000, 62.0979
20006, 25.0000, 62.0979
20007, 30.0000, 62.0979
20008, 35.0000, 62.0979
20009, 40.0000, 62.0979
20010, 45.0000, 62.0979
20011, 50.0000, 62.0979
20012, 55.0000, 62.0979
20013, 60.0000, 62.0979
20014, 65.0000, 62.0979
20015, 70.0000, 62.0979
20016, 75.0000, 62.0979
20017, 80.0000, 62.0979
20018, 85.0000, 62.0979
20019, 90.0000, 62.0979
20020, 95.0000, 62.0979
20021, 100.0000, 62.0979
30001, 0.0000, 102.0979
30002, 5.0000, 102.0979
30003, 10.0000, 102.0979
30004, 15.0000, 102.0979
30005, 20.0000, 102.0979
30006, 25.0000, 102.0979
30007, 30.0000, 102.0979
30008, 35.0000, 102.0979
30009, 40.0000, 102.0979
30010, 45.0000, 102.0979
30011, 50.0000, 102.0979
30012, 55.0000, 102.0979
30013, 60.0000, 102.0979
30014, 65.0000, 102.0979
30015, 70.0000, 102.0979
30016, 75.0000, 102.0979
30017, 80.0000, 102.0979
30018, 85.0000, 102.0979
30019, 90.0000, 102.0979
30020, 95.0000, 102.0979
30021, 100.0000, 102.0979
40001, 0.0000, 142.0979
40002, 5.0000, 142.0979
40003, 10.0000, 142.0979
40004, 15.0000, 142.0979
40005, 20.0000, 142.0979
40006, 25.0000, 142.0979
40007, 30.0000, 142.0979
40008, 35.0000, 142.0979
40009, 40.0000, 142.0979
40010, 45.0000, 142.0979
40011, 50.0000, 142.0979
40012, 55.0000, 142.0979
40013, 60.0000, 142.0979
40014, 65.0000, 142.0979
40015, 70.0000, 142.0979
40016, 75.0000, 142.0979
40017, 80.0000, 142.0979
40018, 85.0000, 142.0979
40019, 90.0000, 142.0979
40020, 95.0000, 142.0979
40021, 100.0000, 142.0979
50001, 0.0000, 182.0979
50002, 5.0000, 182.0979
50003, 10.0000, 182.0979
50004, 15.0000, 182.0979
50005, 20.0000, 182.0979
50006, 25.0000, 182.0979
50007, 30.0000, 182.0979
50008, 35.0000, 182.0979
50009, 40.0000, 182.0979
50010, 45.0000, 182.0979
50011, 50.0000, 182.0979
50012, 55.0000, 182.0979
50013, 60.0000, 182.0979
50014, 65.0000, 182.0979
50015, 70.0000, 182.0979
50016, 75.0000, 182.0979
50017, 80.0000, 182.0979
50018, 85.0000, 182.0979
50019, 90.0000, 182.0979
50020, 95.0000, 182.0979
50021, 100.0000, 182.0979
60001, 0.0000, 222.0979
60002, 5.0000, 222.0979
60003, 10.0000, 222.0979
60004, 15.0000, 222.0979
60005, 20.0000, 222.0979
60006, 25.0000, 222.0979
60007, 30.0000, 222.0979
60008, 35.0000, 222.0979
60009, 40.0000, 222.0979
60010, 45.0000, 222.0979
60011, 50.0000, 222.0979
60012, 55.0000, 222.0979
60013, 60.0000, 222.0979
60014, 65.0000, 222.0979
60015, 70.0000, 222.0979
60016, 75.0000, 222.0979
60017, 80.0000, 222.0979
60018, 85.0000, 222.0979
60019, 90.0000, 222.0979
60020, 95.0000, 222.0979
60021, 100.0000, 222.0979
70001, 0.0000, 262.0979
70002, 5.0000, 262.0979
70003, 10.0000, 262.0979
70004, 15.0000, 262.0979
70005, 20.0000, 262.0979
70006, 25.0000, 262.0979
70007, 30.0000, 262.0979
70008, 35.0000, 262.0979
70009, 40.0000, 262.0979
70010, 45.0000, 262.0979
70011, 50.0000, 262.0979
70012, 55.0000, 262.0979
70013, 60.0000, 262.0979
70014, 65.0000, 262.0979
70015, 70.0000, 262.0979
70016, 75.0000, 262.0979
70017, 80.0000, 262.0979
70018, 85.0000, 262.0979
70019, 90.0000, 262.0979
70020, 95.0000, 262.0979
70021, 100.0000, 262.0979
80001, 0.0000, 302.0979
80002, 5.0000, 302.0979
80003, 10.0000, 302.0979
80004, 15.0000, 302.0979
80005, 20.0000, 302.0979
80006, 25.0000, 302.0979
80007, 30.0000, 302.0979
80008, 35.0000, 302.0979
80009, 40.0000, 302.0979
80010, 45.0000, 302.0979
80011, 50.0000, 302.0979
80012, 55.0000, 302.0979
80013, 60.0000, 302.0979
80014, 65.0000, 302.0979
80015, 70.0000, 302.0979
80016, 75.0000, 302.0979
80017, 80.0000, 302.0979
80018, 85.0000, 302.0979
80019, 90.0000, 302.0979
80020, 95.0000, 302.0979
80021, 100.0000, 302.0979
90001, 0.0000, 342.0979
90002, 5.0000, 342.0979
90003, 10.0000, 342.0979
90004, 15.0000, 342.0979
90005, 20.0000, 342.0979
90006, 25.0000, 342.0979
90007, 30.0000, 342.0979
90008, 35.0000, 342.0979
90009, 40.0000, 342.0979
90010, 45.0000, 342.0979
90011, 50.0000, 342.0979
90012, 55.0000, 342.0979
90013, 60.0000, 342.0979
90014, 65.0000, 342.0979
90015, 70.0000, 342.0979
90016, 75.0000, 342.0979
90017, 80.0000, 342.0979
90018, 85.0000, 342.0979
90019, 90.0000, 342.0979
90020, 95.0000, 342.0979
90021, 100.0000, 342.0979
100001, 0.0000, 382.0979
100002, 5.0000, 382.0979
100003, 10.0000, 382.0979
100004, 15.0000, 382.0979
100005, 20.0000, 382.0979
100006, 25.0000, 382.0979
100007, 30.0000, 382.0979
100008, 35.0000, 382.0979
100009, 40.0000, 382.0979
100010, 45.0000, 382.0979
100011, 50.0000, 382.0979
100012, 55.0000, 382.0979
100013, 60.0000, 382.0979
100014, 65.0000, 382.0979
100015, 70.0000, 382.0979
100016, 75.0000, 382.0979
100017, 80.0000, 382.0979
100018, 85.0000, 382.0979
100019, 90.0000, 382.0979
100020, 95.0000, 382.0979
100021, 100.0000, 382.0979
110001, 0.0000, 422.0979
110002, 5.0000, 422.0979
110003, 10.0000, 422.0979
110004, 15.0000, 422.0979
110005, 20.0000, 422.0979
110006, 25.0000, 422.0979
110007, 30.0000, 422.0979
110008, 35.0000, 422.0979
110009, 40.0000, 422.0979
110010, 45.0000, 422.0979
110011, 50.0000, 422.0979
110012, 55.0000, 422.0979
110013, 60.0000, 422.0979
110014, 65.0000, 422.0979
110015, 70.0000, 422.0979
110016, 75.0000, 422.0979
110017, 80.0000, 422.0979
110018, 85.0000, 422.0979
110019, 90.0000, 422.0979
110020, 95.0000, 422.0979
110021, 100.0000, 422.0979
120001, 0.0000, 462.0979
120002, 5.0000, 462.0979
120003, 10.0000, 462.0979
120004, 15.0000, 462.0979
120005, 20.0000, 462.0979
120006, 25.0000, 462.0979
120007, 30.0000, 462.0979
120008, 35.0000, 462.0979
120009, 40.0000, 462.0979
120010, 45.0000, 462.0979
120011, 50.0000, 462.0979
120012, 55.0000, 462.0979
120013, 60.0000, 462.0979
120014, 65.0000, 462.0979
120015, 70.0000, 462.0979
120016, 75.0000, 462.0979
120017, 80.0000, 462.0979
120018, 85.0000, 462.0979
120019, 90.0000, 462.0979
120020, 95.0000, 462.0979
120021, 100.0000, 462.0979
130001, 0.0000, 502.0979
130002, 5.0000, 502.0979
130003, 10.0000, 502.0979
130004, 15.0000, 502.0979
130005, 20.0000, 502.0979
130006, 25.0000, 502.0979
130007, 30.0000, 502.0979
130008, 35.0000, 502.0979
130009, 40.0000, 502.0979
130010, 45.0000, 502.0979
130011, 50.0000, 502.0979
130012, 55.0000, 502.0979
130013, 60.0000, 502.0979
130014, 65.0000, 502.0979
130015, 70.0000, 502.0979
130016, 75.0000, 502.0979
130017, 80.0000, 502.0979
130018, 85.0000, 502.0979
130019, 90.0000, 502.0979
130020, 95.0000, 502.0979
130021, 100.0000, 502.0979
140001, 0.0000, 542.0979
140002, 5.0000, 542.0979
140003, 10.0000, 542.0979
140004, 15.0000, 542.0979
140005, 20.0000, 542.0979
140006, 25.0000, 542.0979
140007, 30.0000, 542.0979
140008, 35.0000, 542.0979
140009, 40.0000, 542.0979
140010, 45.0000, 542.0979
140011, 50.0000, 542.0979
140012, 55.0000, 542.0979
140013, 60.0000, 542.0979
140014, 65.0000, 542.0979
140015, 70.0000, 542.0979
140016, 75.0000, 542.0979
140017, 80.0000, 542.0979
140018, 85.0000, 542.0979
140019, 90.0000, 542.0979
140020, 95.0000, 542.0979
140021, 100.0000, 542.0979
150001, 0.0000, 582.0979
150002, 5.0000, 582.0979
150003, 10.0000, 582.0979
150004, 15.0000, 582.0979
150005, 20.0000, 582.0979
150006, 25.0000, 582.0979
150007, 30.0000, 582.0979
150008, 35.0000, 582.0979
150009, 40.0000, 582.0979
150010, 45.0000, 582.0979
150011, 50.0000, 582.0979
150012, 55.0000, 582.0979
150013, 60.0000, 582.0979
150014, 65.0000, 582.0979
150015, 70.0000, 582.0979
150016, 75.0000, 582.0979
150017, 80.0000, 582.0979
150018, 85.0000, 582.0979
150019, 90.0000, 582.0979
150020, 95.0000, 582.0979
150021, 100.0000, 582.0979
160001, 0.0000, 622.0979
160002, 5.0000, 622.0979
160003, 10.0000, 622.0979
160004, 15.0000, 622.0979
160005, 20.0000, 622.0979
160006, 25.0000, 622.0979
160007, 30.0000, 622.0979
160008, 35.0000, 622.0979
160009, 40.0000, 622.0979
160010, 45.0000, 622.0979
160011, 50.0000, 622.0979
160012, 55.0000, 622.0979
160013, 60.0000, 622.0979
160014, 65.0000, 622.0979
160015, 70.0000, 622.0979
160016, 75.0000, 622.0979
160017, 80.0000, 622.0979
160018, 85.0000, 622.0979
160019, 90.0000, 622.0979
160020, 95.0000, 622.0979
160021, 100.0000, 622.0979
170001, 0.0000, 662.0979
170002, 5.0000, 662.0979
170003, 10.0000, 662.0979
170004, 15.0000, 662.0979
170005, 20.0000, 662.0979
170006, 25.0000, 662.0979
170007, 30.0000, 662.0979
170008, 35.0000, 662.0979
170009, 40.0000, 662.0979
170010, 45.0000, 662.0979
170011, 50.0000, 662.0979
170012, 55.0000, 662.0979
170013, 60.0000, 662.0979
170014, 65.0000, 662.0979
170015, 70.0000, 662.0979
170016, 75.0000, 662.0979
170017, 80.0000, 662.0979
170018, 85.0000, 662.0979
170019, 90.0000, 662.0979
170020, 95.0000, 662.0979
170021, 100.0000, 662.0979
180001, 0.0000, 702.0979
180002, 5.0000, 702.0979
180003, 10.0000, 702.0979
180004, 15.0000, 702.0979
180005, 20.0000, 702.0979
180006, 25.0000, 702.0979
180007, 30.0000, 702.0979
180008, 35.0000, 702.0979
180009, 40.0000, 702.0979
180010, 45.0000, 702.0979
180011, 50.0000, 702.0979
180012, 55.0000, 702.0979
180013, 60.0000, 702.0979
180014, 65.0000, 702.0979
180015, 70.0000, 702.0979
180016, 75.0000, 702.0979
180017, 80.0000, 702.0979
180018, 85.0000, 702.0979
180019, 90.0000, 702.0979
180020, 95.0000, 702.0979
180021, 100.0000, 702.0979
190001, 0.0000, 742.0979
190002, 5.0000, 742.0979
190003, 10.0000, 742.0979
190004, 15.0000, 742.0979
190005, 20.0000, 742.0979
190006, 25.0000, 742.0979
190007, 30.0000, 742.0979
190008, 35.0000, 742.0979
190009, 40.0000, 742.0979
190010, 45.0000, 742.0979
190011, 50.0000, 742.0979
190012, 55.0000, 742.0979
190013, 60.0000, 742.0979
190014, 65.0000, 742.0979
190015, 70.0000, 742.0979
190016, 75.0000, 742.0979
190017, 80.0000, 742.0979
190018, 85.0000, 742.0979
190019, 90.0000, 742.0979
190020, 95.0000, 742.0979
190021, 100.0000, 742.0979
200001, 0.0000, 782.0979
200002, 5.0000, 782.0979
200003, 10.0000, 782.0979
200004, 15.0000, 782.0979
200005, 20.0000, 782.0979
200006, 25.0000, 782.0979
200007, 30.0000, 782.0979
200008, 35.0000, 782.0979
200009, 40.0000, 782.0979
200010, 45.0000, 782.0979
200011, 50.0000, 782.0979
200012, 55.0000, 782.0979
200013, 60.0000, 782.0979
200014, 65.0000, 782.0979
200015, 70.0000, 782.0979
200016, 75.0000, 782.0979
200017, 80.0000, 782.0979
200018, 85.0000, 782.0979
200019, 90.0000, 782.0979
200020, 95.0000, 782.0979
200021, 100.0000, 782.0979
210001, 0.0000, 822.0979
210002, 5.0000, 822.0979
210003, 10.0000, 822.0979
210004, 15.0000, 822.0979
210005, 20.0000, 822.0979
210006, 25.0000, 822.0979
210007, 30.0000, 822.0979
210008, 35.0000, 822.0979
210009, 40.0000, 822.0979
210010, 45.0000, 822.0979
210011, 50.0000, 822.0979
210012, 55.0000, 822.0979
210013, 60.0000, 822.0979
210014, 65.0000, 822.0979
210015, 70.0000, 822.0979
210016, 75.0000, 822.0979
210017, 80.0000, 822.0979
210018, 85.0000, 822.0979
210019, 90.0000, 822.0979
210020, 95.0000, 822.0979
210021, 100.0000, 822.0979
220001, 0.0000, 862.0979
220002, 5.0000, 862.0979
220003, 10.0000, 862.0979
220004, 15.0000, 862.0979
220005, 20.0000, 862.0979
220006, 25.0000, 862.0979
220007, 30.0000, 862.0979
220008, 35.0000, 862.0979
220009, 40.0000, 862.0979
220010, 45.0000, 862.0979
220011, 50.0000, 862.0979
220012, 55.0000, 862.0979
220013, 60.0000, 862.0979
220014, 65.0000, 862.0979
220015, 70.0000, 862.0979
220016, 75.0000, 862.0979
220017, 80.0000, 862.0979
220018, 85.0000, 862.0979
220019, 90.0000, 862.0979
220020, 95.0000, 862.0979
220021, 100.0000, 862.0979
230001, 0.0000, 902.0979
230002, 5.0000, 902.0979
230003, 10.0000, 902.0979
230004, 15.0000, 902.0979
230005, 20.0000, 902.0979
230006, 25.0000, 902.0979
230007, 30.0000, 902.0979
230008, 35.0000, 902.0979
230009, 40.0000, 902.0979
230010, 45.0000, 902.0979
230011, 50.0000, 902.0979
230012, 55.0000, 902.0979
230013, 60.0000, 902.0979
230014, 65.0000, 902.0979
230015, 70.0000, 902.0979
230016, 75.0000, 902.0979
230017, 80.0000, 902.0979
230018, 85.0000, 902.0979
230019, 90.0000, 902.0979
230020, 95.0000, 902.0979
230021, 100.0000, 902.0979
240001, 0.0000, 942.0979
240002, 5.0000, 942.0979
240003, 10.0000, 942.0979
240004, 15.0000, 942.0979
240005, 20.0000, 942.0979
240006, 25.0000, 942.0979
240007, 30.0000, 942.0979
240008, 35.0000, 942.0979
240009, 40.0000, 942.0979
240010, 45.0000, 942.0979
240011, 50.0000, 942.0979
240012, 55.0000, 942.0979
240013, 60.0000, 942.0979
240014, 65.0000, 942.0979
240015, 70.0000, 942.0979
240016, 75.0000, 942.0979
240017, 80.0000, 942.0979
240018, 85.0000, 942.0979
240019, 90.0000, 942.0979
240020, 95.0000, 942.0979
240021, 100.0000, 942.0979
250001, 0.0000, 982.0979
250002, 5.0000, 982.0979
250003, 10.0000, 982.0979
250004, 15.0000, 982.0979
250005, 20.0000, 982.0979
250006, 25.0000, 982.0979
250007, 30.0000, 982.0979
250008, 35.0000, 982.0979
250009, 40.0000, 982.0979
250010, 45.0000, 982.0979
250011, 50.0000, 982.0979
250012, 55.0000, 982.0979
250013, 60.0000, 982.0979
250014, 65.0000, 982.0979
250015, 70.0000, 982.0979
250016, 75.0000, 982.0979
250017, 80.0000, 982.0979
250018, 85.0000, 982.0979
250019, 90.0000, 982.0979
250020, 95.0000, 982.0979
250021, 100.0000, 982.0979
260001, 0.0000, 1000.0000
260002, 5.0000, 1000.0000
260003, 10.0000, 1000.0000
260004, 15.0000, 1000.0000
260005, 20.0000, 1000.0000
260006, 25.0000, 1000.0000
260007, 30.0000, 1000.0000
260008, 35.0000, 1000.0000
260009, 40.0000, 1000.0000
260010, 45.0000, 1000.0000
260011, 50.0000, 1000.0000
260012, 55.0000, 1000.0000
260013, 60.0000, 1000.0000
260014, 65.0000, 1000.0000
260015, 70.0000, 1000.0000
260016, 75.0000, 1000.0000
260017, 80.0000, 1000.0000
260018, 85.0000, 1000.0000
260019, 90.0000, 1000.0000
260020, 95.0000, 1000.0000
260021, 100.0000, 1000.0000
270001, 0.0000, 1022.0979
270002, 5.0000, 1022.0979
270003, 10.0000, 1022.0979
270004, 15.0000, 1022.0979
270005, 20.0000, 1022.0979
270006, 25.0000, 1022.0979
270007, 30.0000, 1022.0979
270008, 35.0000, 1022.0979
270009, 40.0000, 1022.0979
270010, 45.0000, 1022.0979
270011, 50.0000, 1022.0979
270012, 55.0000, 1022.0979
270013, 60.0000, 1022.0979
270014, 65.0000, 1022.0979
270015, 70.0000, 1022.0979
270016, 75.0000, 1022.0979
270017, 80.0000, 1022.0979
270018, 85.0000, 1022.0979
270019, 90.0000, 1022.0979
270020, 95.0000, 1022.0979
270021, 100.0000, 1022.0979
280001, 0.0000, 1062.0979
280002, 5.0000, 1062.0979
280003, 10.0000, 1062.0979
280004, 15.0000, 1062.0979
280005, 20.0000, 1062.0979
280006, 25.0000, 1062.0979
280007, 30.0000, 1062.0979
280008, 35.0000, 1062.0979
280009, 40.0000, 1062.0979
280010, 45.0000, 1062.0979
280011, 50.0000, 1062.0979
280012, 55.0000, 1062.0979
280013, 60.0000, 1062.0979
280014, 65.0000, 1062.0979
280015, 70.0000, 1062.0979
280016, 75.0000, 1062.0979
280017, 80.0000, 1062.0979
280018, 85.0000, 1062.0979
280019, 90.0000, 1062.0979
280020, 95.0000, 1062.0979
280021, 100.0000, 1062.0979
290001, 0.0000, 1102.0979
290002, 5.0000, 1102.0979
290003, 10.0000, 1102.0979
290004, 15.0000, 1102.0979
290005, 20.0000, 1102.0979
290006, 25.0000, 1102.0979
290007, 30.0000, 1102.0979
290008, 35.0000, 1102.0979
290009, 40.0000, 1102.0979
290010, 45.0000, 1102.0979
290011, 50.0000, 1102.0979
290012, 55.0000, 1102.0979
290013, 60.0000, 1102.0979
290014, 65.0000, 1102.0979
290015, 70.0000, 1102.0979
290016, 75.0000, 1102.0979
290017, 80.0000, 1102.0979
290018, 85.0000, 1102.0979
290019, 90.0000, 1102.0979
290020, 95.0000, 1102.0979
290021, 100.0000, 1102.0979
300001, 0.0000, 1142.0979
300002, 5.0000, 1142.0979
300003, 10.0000, 1142.0979
300004, 15.0000, 1142.0979
300005, 20.0000, 1142.0979
300006, 25.0000, 1142.0979
300007, 30.0000, 1142.0979
300008, 35.0000, 1142.0979
300009, 40.0000, 1142.0979
300010, 45.0000, 1142.0979
300011, 50.0000, 1142.0979
300012, 55.0000, 1142.0979
300013, 60.0000, 1142.0979
300014, 65.0000, 1142.0979
300015, 70.0000, 1142.0979
300016, 75.0000, 1142.0979
300017, 80.0000, 1142.0979
300018, 85.0000, 1142.0979
300019, 90.0000, 1142.0979
300020, 95.0000, 1142.0979
300021, 100.0000, 1142.0979
310001, 0.0000, 1182.0979
310002, 5.0000, 1182.0979
310003, 10.0000, 1182.0979
310004, 15.0000, 1182.0979
310005, 20.0000, 1182.0979
310006, 25.0000, 1182.0979
310007, 30.0000, 1182.0979
310008, 35.0000, 1182.0979
310009, 40.0000, 1182.0979
310010, 45.0000, 1182.0979
310011, 50.0000, 1182.0979
310012, 55.0000, 1182.0979
310013, 60.0000, 1182.0979
310014, 65.0000, 1182.0979
310015, 70.0000, 1182.0979
310016, 75.0000, 1182.0979
310017, 80.0000, 1182.0979
310018, 85.0000, 1182.0979
310019, 90.0000, 1182.0979
310020, 95.0000, 1182.0979
310021, 100.0000, 1182.0979
320001, 0.0000, 1222.0979
320002, 5.0000, 1222.0979
320003, 10.0000, 1222.0979
320004, 15.0000, 1222.0979
320005, 20.0000, 1222.0979
320006, 25.0000, 1222.0979
320007, 30.0000, 1222.0979
320008, 35.0000, 1222.0979
320009, 40.0000, 1222.0979
320010, 45.0000, 1222.0979
320011, 50.0000, 1222.0979
320012, 55.0000, 1222.0979
320013, 60.0000, 1222.0979
320014, 65.0000, 1222.0979
320015, 70.0000, 1222.0979
320016, 75.0000, 1222.0979
320017, 80.0000, 1222.0979
320018, 85.0000, 1222.0979
320019, 90.0000, 1222.0979
320020, 95.0000, 1222.0979
320021, 100.0000, 1222.0979
330001, 0.0000, 1262.0979
330002, 5.0000, 1262.0979
330003, 10.0000, 1262.0979
330004, 15.0000, 1262.0979
330005, 20.0000, 1262.0979
330006, 25.0000, 1262.0979
330007, 30.0000, 1262.0979
330008, 35.0000, 1262.0979
330009, 40.0000, 1262.0979
330010, 45.0000, 1262.0979
330011, 50.0000, 1262.0979
330012, 55.0000, 1262.0979
330013, 60.0000, 1262.0979
330014, 65.0000, 1262.0979
330015, 70.0000, 1262.0979
330016, 75.0000, 1262.0979
330017, 80.0000, 1262.0979
330018, 85.0000, 1262.0979
330019, 90.0000, 1262.0979
330020, 95.0000, 1262.0979
330021, 100.0000, 1262.0979
340001, 0.0000, 1297.4765
340002, 5.0000, 1297.4765
340003, 10.0000, 1297.4765
340004, 15.0000, 1297.4765
340005, 20.0000, 1297.4765
340006, 25.0000, 1297.4765
340007, 30.0000, 1297.4765
340008, 35.0000, 1297.4765
340009, 40.0000, 1297.4765
340010, 45.0000, 1297.4765
340011, 50.0000, 1297.4765
340012, 55.0000, 1297.4765
340013, 60.0000, 1297.4765
340014, 65.0000, 1297.4765
340015, 70.0000, 1297.4765
340016, 75.0000, 1297.4765
340017, 80.0000, 1297.4765
340018, 85.0000, 1297.4765
340019, 90.0000, 1297.4765
340020, 95.0000, 1297.4765
340021, 100.0000, 1297.4765
350001, 0.0000, 1328.2404
350002, 5.0000, 1328.2404
350003, 10.0000, 1328.2404
350004, 15.0000, 1328.2404
350005, 20.0000, 1328.2404
350006, 25.0000, 1328.2404
350007, 30.0000, 1328.2404
350008, 35.0000, 1328.2404
350009, 40.0000, 1328.2404
350010, 45.0000, 1328.2404
350011, 50.0000, 1328.2404
350012, 55.0000, 1328.2404
350013, 60.0000, 1328.2404
350014, 65.0000, 1328.2404
350015, 70.0000, 1328.2404
350016, 75.0000, 1328.2404
350017, 80.0000, 1328.2404
350018, 85.0000, 1328.2404
350019, 90.0000, 1328.2404
350020, 95.0000, 1328.2404
350021, 100.0000, 1328.2404
360001, 0.0000, 1354.9917
360002, 5.0000, 1354.9917
360003, 10.0000, 1354.9917
360004, 15.0000, 1354.9917
360005, 20.0000, 1354.9917
360006, 25.0000, 1354.9917
360007, 30.0000, 1354.9917
360008, 35.0000, 1354.9917
360009, 40.0000, 1354.9917
360010, 45.0000, 1354.9917
360011, 50.0000, 1354.9917
360012, 55.0000, 1354.9917
360013, 60.0000, 1354.9917
360014, 65.0000, 1354.9917
360015, 70.0000, 1354.9917
360016, 75.0000, 1354.9917
360017, 80.0000, 1354.9917
360018, 85.0000, 1354.9917
360019, 90.0000, 1354.9917
360020, 95.0000, 1354.9917
360021, 100.0000, 1354.9917
370001, 0.0000, 1378.2536
370002, 5.0000, 1378.2536
370003, 10.0000, 1378.2536
370004, 15.0000, 1378.2536
370005, 20.0000, 1378.2536
370006, 25.0000, 1378.2536
370007, 30.0000, 1378.2536
370008, 35.0000, 1378.2536
370009, 40.0000, 1378.2536
370010, 45.0000, 1378.2536
370011, 50.0000, 1378.2536
370012, 55.0000, 1378.2536
370013, 60.0000, 1378.2536
370014, 65.0000, 1378.2536
370015, 70.0000, 1378.2536
370016, 75.0000, 1378.2536
370017, 80.0000, 1378.2536
370018, 85.0000, 1378.2536
370019, 90.0000, 1378.2536
370020, 95.0000, 1378.2536
370021, 100.0000, 1378.2536
380001, 0.0000, 1398.4814
380002, 5.0000, 1398.4814
380003, 10.0000, 1398.4814
380004, 15.0000, 1398.4814
380005, 20.0000, 1398.4814
380006, 25.0000, 1398.4814
380007, 30.0000, 1398.4814
380008, 35.0000, 1398.4814
380009, 40.0000, 1398.4814
380010, 45.0000, 1398.4814
380011, 50.0000, 1398.4814
380012, 55.0000, 1398.4814
380013, 60.0000, 1398.4814
380014, 65.0000, 1398.4814
380015, 70.0000, 1398.4814
380016, 75.0000, 1398.4814
380017, 80.0000, 1398.4814
380018, 85.0000, 1398.4814
380019, 90.0000, 1398.4814
380020, 95.0000, 1398.4814
380021, 100.0000, 1398.4814
390001, 0.0000, 1400.0000
390002, 5.0000, 1400.0000
390003, 10.0000, 1400.0000
390004, 15.0000, 1400.0000
390005, 20.0000, 1400.0000
390006, 25.0000, 1400.0000
390007, 30.0000, 1400.0000
390008, 35.0000, 1400.0000
390009, 40.0000, 1400.0000
390010, 45.0000, 1400.0000
390011, 50.0000, 1400.0000
390012, 55.0000, 1400.0000
390013, 60.0000, 1400.0000
390014, 65.0000, 1400.0000
390015, 70.0000, 1400.0000
390016, 75.0000, 1400.0000
390017, 80.0000, 1400.0000
390018, 85.0000, 1400.0000
390019, 90.0000, 1400.0000
390020, 95.0000, 1400.0000
390021, 100.0000, 1400.0000
400001, 0.0000, 1416.0708
400002, 5.0000, 1416.0708
400003, 10.0000, 1416.0708
400004, 15.0000, 1416.0708
400005, 20.0000, 1416.0708
400006, 25.0000, 1416.0708
400007, 30.0000, 1416.0708
400008, 35.0000, 1416.0708
400009, 40.0000, 1416.0708
400010, 45.0000, 1416.0708
400011, 50.0000, 1416.0708
400012, 55.0000, 1416.0708
400013, 60.0000, 1416.0708
400014, 65.0000, 1416.0708
400015, 70.0000, 1416.0708
400016, 75.0000, 1416.0708
400017, 80.0000, 1416.0708
400018, 85.0000, 1416.0708
400019, 90.0000, 1416.0708
400020, 95.0000, 1416.0708
400021, 100.0000, 1416.0708
410001, 0.0000, 1431.3659
410002, 5.0000, 1431.3659
410003, 10.0000, 1431.3659
410004, 15.0000, 1431.3659
410005, 20.0000, 1431.3659
410006, 25.0000, 1431.3659
410007, 30.0000, 1431.3659
410008, 35.0000, 1431.3659
410009, 40.0000, 1431.3659
410010, 45.0000, 1431.3659
410011, 50.0000, 1431.3659
410012, 55.0000, 1431.3659
410013, 60.0000, 1431.3659
410014, 65.0000, 1431.3659
410015, 70.0000, 1431.3659
410016, 75.0000, 1431.3659
410017, 80.0000, 1431.3659
410018, 85.0000, 1431.3659
410019, 90.0000, 1431.3659
410020, 95.0000, 1431.3659
410021, 100.0000, 1431.3659
420001, 0.0000, 1444.6660
420002, 5.0000, 1444.6660
420003, 10.0000, 1444.6660
420004, 15.0000, 1444.6660
420005, 20.0000, 1444.6660
420006, 25.0000, 1444.6660
420007, 30.0000, 1444.6660
420008, 35.0000, 1444.6660
420009, 40.0000, 1444.6660
420010, 45.0000, 1444.6660
420011, 50.0000, 1444.6660
420012, 55.0000, 1444.6660
420013, 60.0000, 1444.6660
420014, 65.0000, 1444.6660
420015, 70.0000, 1444.6660
420016, 75.0000, 1444.6660
420017, 80.0000, 1444.6660
420018, 85.0000, 1444.6660
420019, 90.0000, 1444.6660
420020, 95.0000, 1444.6660
420021, 100.0000, 1444.6660
430001, 0.0000, 1456.2313
430002, 5.0000, 1456.2313
430003, 10.0000, 1456.2313
430004, 15.0000, 1456.2313
430005, 20.0000, 1456.2313
430006, 25.0000, 1456.2313
430007, 30.0000, 1456.2313
430008, 35.0000, 1456.2313
430009, 40.0000, 1456.2313
430010, 45.0000, 1456.2313
430011, 50.0000, 1456.2313
430012, 55.0000, 1456.2313
430013, 60.0000, 1456.2313
430014, 65.0000, 1456.2313
430015, 70.0000, 1456.2313
430016, 75.0000, 1456.2313
430017, 80.0000, 1456.2313
430018, 85.0000, 1456.2313
430019, 90.0000, 1456.2313
430020, 95.0000, 1456.2313
430021, 100.0000, 1456.2313
440001, 0.0000, 1466.2881
440002, 5.0000, 1466.2881
440003, 10.0000, 1466.2881
440004, 15.0000, 1466.2881
440005, 20.0000, 1466.2881
440006, 25.0000, 1466.2881
440007, 30.0000, 1466.2881
440008, 35.0000, 1466.2881
440009, 40.0000, 1466.2881
440010, 45.0000, 1466.2881
440011, 50.0000, 1466.2881
440012, 55.0000, 1466.2881
440013, 60.0000, 1466.2881
440014, 65.0000, 1466.2881
440015, 70.0000, 1466.2881
440016, 75.0000, 1466.2881
440017, 80.0000, 1466.2881
440018, 85.0000, 1466.2881
440019, 90.0000, 1466.2881
440020, 95.0000, 1466.2881
440021, 100.0000, 1466.2881
450001, 0.0000, 1475.0331
450002, 5.0000, 1475.0331
450003, 10.0000, 1475.0331
450004, 15.0000, 1475.0331
450005, 20.0000, 1475.0331
450006, 25.0000, 1475.0331
450007, 30.0000, 1475.0331
450008, 35.0000, 1475.0331
450009, 40.0000, 1475.0331
450010, 45.0000, 1475.0331
450011, 50.0000, 1475.0331
450012, 55.0000, 1475.0331
450013, 60.0000, 1475.0331
450014, 65.0000, 1475.0331
450015, 70.0000, 1475.0331
450016, 75.0000, 1475.0331
450017, 80.0000, 1475.0331
450018, 85.0000, 1475.0331
450019, 90.0000, 1475.0331
450020, 95.0000, 1475.0331
450021, 100.0000, 1475.0331
460001, 0.0000, 1482.6375
460002, 5.0000, 1482.6375
460003, 10.0000, 1482.6375
460004, 15.0000, 1482.6375
460005, 20.0000, 1482.6375
460006, 25.0000, 1482.6375
460007, 30.0000, 1482.6375
460008, 35.0000, 1482.6375
460009, 40.0000, 1482.6375
460010, 45.0000, 1482.6375
460011, 50.0000, 1482.6375
460012, 55.0000, 1482.6375
460013, 60.0000, 1482.6375
460014, 65.0000, 1482.6375
460015, 70.0000, 1482.6375
460016, 75.0000, 1482.6375
460017, 80.0000, 1482.6375
460018, 85.0000, 1482.6375
460019, 90.0000, 1482.6375
460020, 95.0000, 1482.6375
460021, 100.0000, 1482.6375
470001, 0.0000, 1489.2500
470002, 5.0000, 1489.2500
470003, 10.0000, 1489.2500
470004, 15.0000, 1489.2500
470005, 20.0000, 1489.2500
470006, 25.0000, 1489.2500
470007, 30.0000, 1489.2500
470008, 35.0000, 1489.2500
470009, 40.0000, 1489.2500
470010, 45.0000, 1489.2500
470011, 50.0000, 1489.2500
470012, 55.0000, 1489.2500
470013, 60.0000, 1489.2500
470014, 65.0000, 1489.2500
470015, 70.0000, 1489.2500
470016, 75.0000, 1489.2500
470017, 80.0000, 1489.2500
470018, 85.0000, 1489.2500
470019, 90.0000, 1489.2500
470020, 95.0000, 1489.2500
470021, 100.0000, 1489.2500
480001, 0.0000, 1495.0000
480002, 5.0000, 1495.0000
480003, 10.0000, 1495.0000
480004, 15.0000, 1495.0000
480005, 20.0000, 1495.0000
480006, 25.0000, 1495.0000
480007, 30.0000, 1495.0000
480008, 35.0000, 1495.0000
480009, 40.0000, 1495.0000
480010, 45.0000, 1495.0000
480011, 50.0000, 1495.0000
480012, 55.0000, 1495.0000
480013, 60.0000, 1495.0000
480014, 65.0000, 1495.0000
480015, 70.0000, 1495.0000
480016, 75.0000, 1495.0000
480017, 80.0000, 1495.0000
480018, 85.0000, 1495.0000
480019, 90.0000, 1495.0000
480020, 95.0000, 1495.0000
480021, 100.0000, 1495.0000
490001, 0.0000, 1500.0000
490002, 5.0000, 1500.0000
490003, 10.0000, 1500.0000
490004, 15.0000, 1500.0000
490005, 20.0000, 1500.0000
490006, 25.0000, 1500.0000
490007, 30.0000, 1500.0000
490008, 35.0000, 1500.0000
490009, 40.0000, 1500.0000
490010, 45.0000, 1500.0000
490011, 50.0000, 1500.0000
490012, 55.0000, 1500.0000
490013, 60.0000, 1500.0000
490014, 65.0000, 1500.0000
490015, 70.0000, 1500.0000
490016, 75.0000, 1500.0000
490017, 80.0000, 1500.0000
490018, 85.0000, 1500.0000
490019, 90.0000, 1500.0000
490020, 95.0000, 1500.0000
490021, 100.0000, 1500.0000
5000000, 100.0000, 0.0000
5000001, 105.0000, 0.0000
5000002, 111.0000, 0.0000
5000003, 118.2000, 0.0000
5000004, 126.8400, 0.0000
5000005, 137.2080, 0.0000
5000006, 149.6496, 0.0000
5000007, 164.5795, 0.0000
5000008, 182.4954, 0.0000
5000009, 203.9945, 0.0000
5000010, 229.7934, 0.0000
5000011, 260.7521, 0.0000
5000012, 297.9025, 0.0000
5000013, 342.4830, 0.0000
5000014, 395.9796, 0.0000
5000015, 460.1755, 0.0000
5000016, 537.2106, 0.0000
5000017, 629.6528, 0.0000
5000018, 740.5833, 0.0000
5000019, 873.7000, 0.0000
5000020, 1033.4400, 0.0000
5000021, 1225.1280, 0.0000
5000022, 1455.1536, 0.0000
5000023, 1500.0000, 0.0000
5010000, 100.0000, 22.0979
5010001, 105.0000, 22.0979
5010002, 111.0000, 22.0979
5010003, 118.2000, 22.0979
5010004, 126.8400, 22.0979
5010005, 137.2080, 22.0979
5010006, 149.6496, 22.0979
5010007, 164.5795, 22.0979
5010008, 182.4954, 22.0979
5010009, 203.9945, 22.0979
5010010, 229.7934, 22.0979
5010011, 260.7521, 22.0979
5010012, 297.9025, 22.0979
5010013, 342.4830, 22.0979
5010014, 395.9796, 22.0979
5010015, 460.1755, 22.0979
5010016, 537.2106, 22.0979
5010017, 629.6528, 22.0979
5010018, 740.5833, 22.0979
5010019, 873.7000, 22.0979
5010020, 1033.4400, 22.0979
5010021, 1225.1280, 22.0979
5010022, 1455.1536, 22.0979
5010023, 1500.0000, 22.0979
5020000, 100.0000, 62.0979
5020001, 105.0000, 62.0979
5020002, 111.0000, 62.0979
5020003, 118.2000, 62.0979
5020004, 126.8400, 62.0979
5020005, 137.2080, 62.0979
5020006, 149.6496, 62.0979
5020007, 164.5795, 62.0979
5020008, 182.4954, 62.0979
5020009, 203.9945, 62.0979
5020010, 229.7934, 62.0979
5020011, 260.7521, 62.0979
5020012, 297.9025, 62.0979
5020013, 342.4830, 62.0979
5020014, 395.9796, 62.0979
5020015, 460.1755, 62.0979
5020016, 537.2106, 62.0979
5020017, 629.6528, 62.0979
5020018, 740.5833, 62.0979
5020019, 873.7000, 62.0979
5020020, 1033.4400, 62.0979
5020021, 1225.1280, 62.0979
5020022, 1455.1536, 62.0979
5020023, 1500.0000, 62.0979
5030000, 100.0000, 102.0979
5030001, 105.0000, 102.0979
5030002, 111.0000, 102.0979
5030003, 118.2000, 102.0979
5030004, 126.8400, 102.0979
5030005, 137.2080, 102.0979
5030006, 149.6496, 102.0979
5030007, 164.5795, 102.0979
5030008, 182.4954, 102.0979
5030009, 203.9945, 102.0979
5030010, 229.7934, 102.0979
5030011, 260.7521, 102.0979
5030012, 297.9025, 102.0979
5030013, 342.4830, 102.0979
5030014, 395.9796, 102.0979
5030015, 460.1755, 102.0979
5030016, 537.2106, 102.0979
5030017, 629.6528, 102.0979
5030018, 740.5833, 102.0979
5030019, 873.7000, 102.0979
5030020, 1033.4400, 102.0979
5030021, 1225.1280, 102.0979
5030022, 1455.1536, 102.0979
5030023, 1500.0000, 102.0979
5040000, 100.0000, 142.0979
5040001, 105.0000, 142.0979
5040002, 111.0000, 142.0979
5040003, 118.2000, 142.0979
5040004, 126.8400, 142.0979
5040005, 137.2080, 142.0979
5040006, 149.6496, 142.0979
5040007, 164.5795, 142.0979
5040008, 182.4954, 142.0979
5040009, 203.9945, 142.0979
5040010, 229.7934, 142.0979
5040011, 260.7521, 142.0979
5040012, 297.9025, 142.0979
5040013, 342.4830, 142.0979
5040014, 395.9796, 142.0979
5040015, 460.1755, 142.0979
5040016, 537.2106, 142.0979
5040017, 629.6528, 142.0979
5040018, 740.5833, 142.0979
5040019, 873.7000, 142.0979
5040020, 1033.4400, 142.0979
5040021, 1225.1280, 142.0979
5040022, 1455.1536, 142.0979
5040023, 1500.0000, 142.0979
5050000, 100.0000, 182.0979
5050001, 105.0000, 182.0979
5050002, 111.0000, 182.0979
5050003, 118.2000, 182.0979
5050004, 126.8400, 182.0979
5050005, 137.2080, 182.0979
5050006, 149.6496, 182.0979
5050007, 164.5795, 182.0979
5050008, 182.4954, 182.0979
5050009, 203.9945, 182.0979
5050010, 229.7934, 182.0979
5050011, 260.7521, 182.0979
5050012, 297.9025, 182.0979
5050013, 342.4830, 182.0979
5050014, 395.9796, 182.0979
5050015, 460.1755, 182.0979
5050016, 537.2106, 182.0979
5050017, 629.6528, 182.0979
5050018, 740.5833, 182.0979
5050019, 873.7000, 182.0979
5050020, 1033.4400, 182.0979
5050021, 1225.1280, 182.0979
5050022, 1455.1536, 182.0979
5050023, 1500.0000, 182.0979
5060000, 100.0000, 222.0979
5060001, 105.0000, 222.0979
5060002, 111.0000, 222.0979
5060003, 118.2000, 222.0979
5060004, 126.8400, 222.0979
5060005, 137.2080, 222.0979
5060006, 149.6496, 222.0979
5060007, 164.5795, 222.0979
5060008, 182.4954, 222.0979
5060009, 203.9945, 222.0979
5060010, 229.7934, 222.0979
5060011, 260.7521, 222.0979
5060012, 297.9025, 222.0979
5060013, 342.4830, 222.0979
5060014, 395.9796, 222.0979
5060015, 460.1755, 222.0979
5060016, 537.2106, 222.0979
5060017, 629.6528, 222.0979
5060018, 740.5833, 222.0979
5060019, 873.7000, 222.0979
5060020, 1033.4400, 222.0979
5060021, 1225.1280, 222.0979
5060022, 1455.1536, 222.0979
5060023, 1500.0000, 222.0979
5070000, 100.0000, 262.0979
5070001, 105.0000, 262.0979
5070002, 111.0000, 262.0979
5070003, 118.2000, 262.0979
5070004, 126.8400, 262.0979
5070005, 137.2080, 262.0979
5070006, 149.6496, 262.0979
5070007, 164.5795, 262.0979
5070008, 182.4954, 262.0979
5070009, 203.9945, 262.0979
5070010, 229.7934, 262.0979
5070011, 260.7521, 262.0979
5070012, 297.9025, 262.0979
5070013, 342.4830, 262.0979
5070014, 395.9796, 262.0979
5070015, 460.1755, 262.0979
5070016, 537.2106, 262.0979
5070017, 629.6528, 262.0979
5070018, 740.5833, 262.0979
5070019, 873.7000, 262.0979
5070020, 1033.4400, 262.0979
5070021, 1225.1280, 262.0979
5070022, 1455.1536, 262.0979
5070023, 1500.0000, 262.0979
5080000, 100.0000, 302.0979
5080001, 105.0000, 302.0979
5080002, 111.0000, 302.0979
5080003, 118.2000, 302.0979
5080004, 126.8400, 302.0979
5080005, 137.2080, 302.0979
5080006, 149.6496, 302.0979
5080007, 164.5795, 302.0979
5080008, 182.4954, 302.0979
5080009, 203.9945, 302.0979
5080010, 229.7934, 302.0979
5080011, 260.7521, 302.0979
5080012, 297.9025, 302.0979
5080013, 342.4830, 302.0979
5080014, 395.9796, 302.0979
5080015, 460.1755, 302.0979
5080016, 537.2106, 302.0979
5080017, 629.6528, 302.0979
5080018, 740.5833, 302.0979
5080019, 873.7000, 302.0979
5080020, 1033.4400, 302.0979
5080021, 1225.1280, 302.0979
5080022, 1455.1536, 302.0979
5080023, 1500.0000, 302.0979
5090000, 100.0000, 342.0979
5090001, 105.0000, 342.0979
5090002, 111.0000, 342.0979
5090003, 118.2000, 342.0979
5090004, 126.8400, 342.0979
5090005, 137.2080, 342.0979
5090006, 149.6496, 342.0979
5090007, 164.5795, 342.0979
5090008, 182.4954, 342.0979
5090009, 203.9945, 342.0979
5090010, 229.7934, 342.0979
5090011, 260.7521, 342.0979
5090012, 297.9025, 342.0979
5090013, 342.4830, 342.0979
5090014, 395.9796, 342.0979
5090015, 460.1755, 342.0979
5090016, 537.2106, 342.0979
5090017, 629.6528, 342.0979
5090018, 740.5833, 342.0979
5090019, 873.7000, 342.0979
5090020, 1033.4400, 342.0979
5090021, 1225.1280, 342.0979
5090022, 1455.1536, 342.0979
5090023, 1500.0000, 342.0979
5100000, 100.0000, 382.0979
5100001, 105.0000, 382.0979
5100002, 111.0000, 382.0979
5100003, 118.2000, 382.0979
5100004, 126.8400, 382.0979
5100005, 137.2080, 382.0979
5100006, 149.6496, 382.0979
5100007, 164.5795, 382.0979
5100008, 182.4954, 382.0979
5100009, 203.9945, 382.0979
5100010, 229.7934, 382.0979
5100011, 260.7521, 382.0979
5100012, 297.9025, 382.0979
5100013, 342.4830, 382.0979
5100014, 395.9796, 382.0979
5100015, 460.1755, 382.0979
5100016, 537.2106, 382.0979
5100017, 629.6528, 382.0979
5100018, 740.5833, 382.0979
5100019, 873.7000, 382.0979
5100020, 1033.4400, 382.0979
5100021, 1225.1280, 382.0979
5100022, 1455.1536, 382.0979
5100023, 1500.0000, 382.0979
5110000, 100.0000, 422.0979
5110001, 105.0000, 422.0979
5110002, 111.0000, 422.0979
5110003, 118.2000, 422.0979
5110004, 126.8400, 422.0979
5110005, 137.2080, 422.0979
5110006, 149.6496, 422.0979
5110007, 164.5795, 422.0979
5110008, 182.4954, 422.0979
5110009, 203.9945, 422.0979
5110010, 229.7934, 422.0979
5110011, 260.7521, 422.0979
5110012, 297.9025, 422.0979
5110013, 342.4830, 422.0979
5110014, 395.9796, 422.0979
5110015, 460.1755, 422.0979
5110016, 537.2106, 422.0979
5110017, 629.6528, 422.0979
5110018, 740.5833, 422.0979
5110019, 873.7000, 422.0979
5110020, 1033.4400, 422.0979
5110021, 1225.1280, 422.0979
5110022, 1455.1536, 422.0979
5110023, 1500.0000, 422.0979
5120000, 100.0000, 462.0979
5120001, 105.0000, 462.0979
5120002, 111.0000, 462.0979
5120003, 118.2000, 462.0979
5120004, 126.8400, 462.0979
5120005, 137.2080, 462.0979
5120006, 149.6496, 462.0979
5120007, 164.5795, 462.0979
5120008, 182.4954, 462.0979
5120009, 203.9945, 462.0979
5120010, 229.7934, 462.0979
5120011, 260.7521, 462.0979
5120012, 297.9025, 462.0979
5120013, 342.4830, 462.0979
5120014, 395.9796, 462.0979
5120015, 460.1755, 462.0979
5120016, 537.2106, 462.0979
5120017, 629.6528, 462.0979
5120018, 740.5833, 462.0979
5120019, 873.7000, 462.0979
5120020, 1033.4400, 462.0979
5120021, 1225.1280, 462.0979
5120022, 1455.1536, 462.0979
5120023, 1500.0000, 462.0979
5130000, 100.0000, 502.0979
5130001, 105.0000, 502.0979
5130002, 111.0000, 502.0979
5130003, 118.2000, 502.0979
5130004, 126.8400, 502.0979
5130005, 137.2080, 502.0979
5130006, 149.6496, 502.0979
5130007, 164.5795, 502.0979
5130008, 182.4954, 502.0979
5130009, 203.9945, 502.0979
5130010, 229.7934, 502.0979
5130011, 260.7521, 502.0979
5130012, 297.9025, 502.0979
5130013, 342.4830, 502.0979
5130014, 395.9796, 502.0979
5130015, 460.1755, 502.0979
5130016, 537.2106, 502.0979
5130017, 629.6528, 502.0979
5130018, 740.5833, 502.0979
5130019, 873.7000, 502.0979
5130020, 1033.4400, 502.0979
5130021, 1225.1280, 502.0979
5130022, 1455.1536, 502.0979
5130023, 1500.0000, 502.0979
5140000, 100.0000, 542.0979
5140001, 105.0000, 542.0979
5140002, 111.0000, 542.0979
5140003, 118.2000, 542.0979
5140004, 126.8400, 542.0979
5140005, 137.2080, 542.0979
5140006, 149.6496, 542.0979
5140007, 164.5795, 542.0979
5140008, 182.4954, 542.0979
5140009, 203.9945, 542.0979
5140010, 229.7934, 542.0979
5140011, 260.7521, 542.0979
5140012, 297.9025, 542.0979
5140013, 342.4830, 542.0979
5140014, 395.9796, 542.0979
5140015, 460.1755, 542.0979
5140016, 537.2106, 542.0979
5140017, 629.6528, 542.0979
5140018, 740.5833, 542.0979
5140019, 873.7000, 542.0979
5140020, 1033.4400, 542.0979
5140021, 1225.1280, 542.0979
5140022, 1455.1536, 542.0979
5140023, 1500.0000, 542.0979
5150000, 100.0000, 582.0979
5150001, 105.0000, 582.0979
5150002, 111.0000, 582.0979
5150003, 118.2000, 582.0979
5150004, 126.8400, 582.0979
5150005, 137.2080, 582.0979
5150006, 149.6496, 582.0979
5150007, 164.5795, 582.0979
5150008, 182.4954, 582.0979
5150009, 203.9945, 582.0979
5150010, 229.7934, 582.0979
5150011, 260.7521, 582.0979
5150012, 297.9025, 582.0979
5150013, 342.4830, 582.0979
5150014, 395.9796, 582.0979
5150015, 460.1755, 582.0979
5150016, 537.2106, 582.0979
5150017, 629.6528, 582.0979
5150018, 740.5833, 582.0979
5150019, 873.7000, 582.0979
5150020, 1033.4400, 582.0979
5150021, 1225.1280, 582.0979
5150022, 1455.1536, 582.0979
5150023, 1500.0000, 582.0979
5160000, 100.0000, 622.0979
5160001, 105.0000, 622.0979
5160002, 111.0000, 622.0979
5160003, 118.2000, 622.0979
5160004, 126.8400, 622.0979
5160005, 137.2080, 622.0979
5160006, 149.6496, 622.0979
5160007, 164.5795, 622.0979
5160008, 182.4954, 622.0979
5160009, 203.9945, 622.0979
5160010, 229.7934, 622.0979
5160011, 260.7521, 622.0979
5160012, 297.9025, 622.0979
5160013, 342.4830, 622.0979
5160014, 395.9796, 622.0979
5160015, 460.1755, 622.0979
5160016, 537.2106, 622.0979
5160017, 629.6528, 622.0979
5160018, 740.5833, 622.0979
5160019, 873.7000, 622.0979
5160020, 1033.4400, 622.0979
5160021, 1225.1280, 622.0979
5160022, 1455.1536, 622.0979
5160023, 1500.0000, 622.0979
5170000, 100.0000, 662.0979
5170001, 105.0000, 662.0979
5170002, 111.0000, 662.0979
5170003, 118.2000, 662.0979
5170004, 126.8400, 662.0979
5170005, 137.2080, 662.0979
5170006, 149.6496, 662.0979
5170007, 164.5795, 662.0979
5170008, 182.4954, 662.0979
5170009, 203.9945, 662.0979
5170010, 229.7934, 662.0979
5170011, 260.7521, 662.0979
5170012, 297.9025, 662.0979
5170013, 342.4830, 662.0979
5170014, 395.9796, 662.0979
5170015, 460.1755, 662.0979
5170016, 537.2106, 662.0979
5170017, 629.6528, 662.0979
5170018, 740.5833, 662.0979
5170019, 873.7000, 662.0979
5170020, 1033.4400, 662.0979
5170021, 1225.1280, 662.0979
5170022, 1455.1536, 662.0979
5170023, 1500.0000, 662.0979
5180000, 100.0000, 702.0979
5180001, 105.0000, 702.0979
5180002, 111.0000, 702.0979
5180003, 118.2000, 702.0979
5180004, 126.8400, 702.0979
5180005, 137.2080, 702.0979
5180006, 149.6496, 702.0979
5180007, 164.5795, 702.0979
5180008, 182.4954, 702.0979
5180009, 203.9945, 702.0979
5180010, 229.7934, 702.0979
5180011, 260.7521, 702.0979
5180012, 297.9025, 702.0979
5180013, 342.4830, 702.0979
5180014, 395.9796, 702.0979
5180015, 460.1755, 702.0979
5180016, 537.2106, 702.0979
5180017, 629.6528, 702.0979
5180018, 740.5833, 702.0979
5180019, 873.7000, 702.0979
5180020, 1033.4400, 702.0979
5180021, 1225.1280, 702.0979
5180022, 1455.1536, 702.0979
5180023, 1500.0000, 702.0979
5190000, 100.0000, 742.0979
5190001, 105.0000, 742.0979
5190002, 111.0000, 742.0979
5190003, 118.2000, 742.0979
5190004, 126.8400, 742.0979
5190005, 137.2080, 742.0979
5190006, 149.6496, 742.0979
5190007, 164.5795, 742.0979
5190008, 182.4954, 742.0979
5190009, 203.9945, 742.0979
5190010, 229.7934, 742.0979
5190011, 260.7521, 742.0979
5190012, 297.9025, 742.0979
5190013, 342.4830, 742.0979
5190014, 395.9796, 742.0979
5190015, 460.1755, 742.0979
5190016, 537.2106, 742.0979
5190017, 629.6528, 742.0979
5190018, 740.5833, 742.0979
5190019, 873.7000, 742.0979
5190020, 1033.4400, 742.0979
5190021, 1225.1280, 742.0979
5190022, 1455.1536, 742.0979
5190023, 1500.0000, 742.0979
5200000, 100.0000, 782.0979
5200001, 105.0000, 782.0979
5200002, 111.0000, 782.0979
5200003, 118.2000, 782.0979
5200004, 126.8400, 782.0979
5200005, 137.2080, 782.0979
5200006, 149.6496, 782.0979
5200007, 164.5795, 782.0979
5200008, 182.4954, 782.0979
5200009, 203.9945, 782.0979
5200010, 229.7934, 782.0979
5200011, 260.7521, 782.0979
5200012, 297.9025, 782.0979
5200013, 342.4830, 782.0979
5200014, 395.9796, 782.0979
5200015, 460.1755, 782.0979
5200016, 537.2106, 782.0979
5200017, 629.6528, 782.0979
5200018, 740.5833, 782.0979
5200019, 873.7000, 782.0979
5200020, 1033.4400, 782.0979
5200021, 1225.1280, 782.0979
5200022, 1455.1536, 782.0979
5200023, 1500.0000, 782.0979
5210000, 100.0000, 822.0979
5210001, 105.0000, 822.0979
5210002, 111.0000, 822.0979
5210003, 118.2000, 822.0979
5210004, 126.8400, 822.0979
5210005, 137.2080, 822.0979
5210006, 149.6496, 822.0979
5210007, 164.5795, 822.0979
5210008, 182.4954, 822.0979
5210009, 203.9945, 822.0979
5210010, 229.7934, 822.0979
5210011, 260.7521, 822.0979
5210012, 297.9025, 822.0979
5210013, 342.4830, 822.0979
5210014, 395.9796, 822.0979
5210015, 460.1755, 822.0979
5210016, 537.2106, 822.0979
5210017, 629.6528, 822.0979
5210018, 740.5833, 822.0979
5210019, 873.7000, 822.0979
5210020, 1033.4400, 822.0979
5210021, 1225.1280, 822.0979
5210022, 1455.1536, 822.0979
5210023, 1500.0000, 822.0979
5220000, 100.0000, 862.0979
5220001, 105.0000, 862.0979
5220002, 111.0000, 862.0979
5220003, 118.2000, 862.0979
5220004, 126.8400, 862.0979
5220005, 137.2080, 862.0979
5220006, 149.6496, 862.0979
5220007, 164.5795, 862.0979
5220008, 182.4954, 862.0979
5220009, 203.9945, 862.0979
5220010, 229.7934, 862.0979
5220011, 260.7521, 862.0979
5220012, 297.9025, 862.0979
5220013, 342.4830, 862.0979
5220014, 395.9796, 862.0979
5220015, 460.1755, 862.0979
5220016, 537.2106, 862.0979
5220017, 629.6528, 862.0979
5220018, 740.5833, 862.0979
5220019, 873.7000, 862.0979
5220020, 1033.4400, 862.0979
5220021, 1225.1280, 862.0979
5220022, 1455.1536, 862.0979
5220023, 1500.0000, 862.0979
5230000, 100.0000, 902.0979
5230001, 105.0000, 902.0979
5230002, 111.0000, 902.0979
5230003, 118.2000, 902.0979
5230004, 126.8400, 902.0979
5230005, 137.2080, 902.0979
5230006, 149.6496, 902.0979
5230007, 164.5795, 902.0979
5230008, 182.4954, 902.0979
5230009, 203.9945, 902.0979
5230010, 229.7934, 902.0979
5230011, 260.7521, 902.0979
5230012, 297.9025, 902.0979
5230013, 342.4830, 902.0979
5230014, 395.9796, 902.0979
5230015, 460.1755, 902.0979
5230016, 537.2106, 902.0979
5230017, 629.6528, 902.0979
5230018, 740.5833, 902.0979
5230019, 873.7000, 902.0979
5230020, 1033.4400, 902.0979
5230021, 1225.1280, 902.0979
5230022, 1455.1536, 902.0979
5230023, 1500.0000, 902.0979
5240000, 100.0000, 942.0979
5240001, 105.0000, 942.0979
5240002, 111.0000, 942.0979
5240003, 118.2000, 942.0979
5240004, 126.8400, 942.0979
5240005, 137.2080, 942.0979
5240006, 149.6496, 942.0979
5240007, 164.5795, 942.0979
5240008, 182.4954, 942.0979
5240009, 203.9945, 942.0979
5240010, 229.7934, 942.0979
5240011, 260.7521, 942.0979
5240012, 297.9025, 942.0979
5240013, 342.4830, 942.0979
5240014, 395.9796, 942.0979
5240015, 460.1755, 942.0979
5240016, 537.2106, 942.0979
5240017, 629.6528, 942.0979
5240018, 740.5833, 942.0979
5240019, 873.7000, 942.0979
5240020, 1033.4400, 942.0979
5240021, 1225.1280, 942.0979
5240022, 1455.1536, 942.0979
5240023, 1500.0000, 942.0979
5250000, 100.0000, 982.0979
5250001, 105.0000, 982.0979
5250002, 111.0000, 982.0979
5250003, 118.2000, 982.0979
5250004, 126.8400, 982.0979
5250005, 137.2080, 982.0979
5250006, 149.6496, 982.0979
5250007, 164.5795, 982.0979
5250008, 182.4954, 982.0979
5250009, 203.9945, 982.0979
5250010, 229.7934, 982.0979
5250011, 260.7521, 982.0979
5250012, 297.9025, 982.0979
5250013, 342.4830, 982.0979
5250014, 395.9796, 982.0979
5250015, 460.1755, 982.0979
5250016, 537.2106, 982.0979
5250017, 629.6528, 982.0979
5250018, 740.5833, 982.0979
5250019, 873.7000, 982.0979
5250020, 1033.4400, 982.0979
5250021, 1225.1280, 982.0979
5250022, 1455.1536, 982.0979
5250023, 1500.0000, 982.0979
5260000, 100.0000, 1000.0000
5260001, 105.0000, 1000.0000
5260002, 111.0000, 1000.0000
5260003, 118.2000, 1000.0000
5260004, 126.8400, 1000.0000
5260005, 137.2080, 1000.0000
5260006, 149.6496, 1000.0000
5260007, 164.5795, 1000.0000
5260008, 182.4954, 1000.0000
5260009, 203.9945, 1000.0000
5260010, 229.7934, 1000.0000
5260011, 260.7521, 1000.0000
5260012, 297.9025, 1000.0000
5260013, 342.4830, 1000.0000
5260014, 395.9796, 1000.0000
5260015, 460.1755, 1000.0000
5260016, 537.2106, 1000.0000
5260017, 629.6528, 1000.0000
5260018, 740.5833, 1000.0000
5260019, 873.7000, 1000.0000
5260020, 1033.4400, 1000.0000
5260021, 1225.1280, 1000.0000
5260022, 1455.1536, 1000.0000
5260023, 1500.0000, 1000.0000
5270000, 100.0000, 1022.0979
5270001, 105.0000, 1022.0979
5270002, 111.0000, 1022.0979
5270003, 118.2000, 1022.0979
5270004, 126.8400, 1022.0979
5270005, 137.2080, 1022.0979
5270006, 149.6496, 1022.0979
5270007, 164.5795, 1022.0979
5270008, 182.4954, 1022.0979
5270009, 203.9945, 1022.0979
5270010, 229.7934, 1022.0979
5270011, 260.7521, 1022.0979
5270012, 297.9025, 1022.0979
5270013, 342.4830, 1022.0979
5270014, 395.9796, 1022.0979
5270015, 460.1755, 1022.0979
5270016, 537.2106, 1022.0979
5270017, 629.6528, 1022.0979
5270018, 740.5833, 1022.0979
5270019, 873.7000, 1022.0979
5270020, 1033.4400, 1022.0979
5270021, 1225.1280, 1022.0979
5270022, 1455.1536, 1022.0979
5270023, 1500.0000, 1022.0979
5280000, 100.0000, 1062.0979
5280001, 105.0000, 1062.0979
5280002, 111.0000, 1062.0979
5280003, 118.2000, 1062.0979
5280004, 126.8400, 1062.0979
5280005, 137.2080, 1062.0979
5280006, 149.6496, 1062.0979
5280007, 164.5795, 1062.0979
5280008, 182.4954, 1062.0979
5280009, 203.9945, 1062.0979
5280010, 229.7934, 1062.0979
5280011, 260.7521, 1062.0979
5280012, 297.9025, 1062.0979
5280013, 342.4830, 1062.0979
5280014, 395.9796, 1062.0979
5280015, 460.1755, 1062.0979
5280016, 537.2106, 1062.0979
5280017, 629.6528, 1062.0979
5280018, 740.5833, 1062.0979
5280019, 873.7000, 1062.0979
5280020, 1033.4400, 1062.0979
5280021, 1225.1280, 1062.0979
5280022, 1455.1536, 1062.0979
5280023, 1500.0000, 1062.0979
5290000, 100.0000, 1102.0979
5290001, 105.0000, 1102.0979
5290002, 111.0000, 1102.0979
5290003, 118.2000, 1102.0979
5290004, 126.8400, 1102.0979
5290005, 137.2080, 1102.0979
5290006, 149.6496, 1102.0979
5290007, 164.5795, 1102.0979
5290008, 182.4954, 1102.0979
5290009, 203.9945, 1102.0979
5290010, 229.7934, 1102.0979
5290011, 260.7521, 1102.0979
5290012, 297.9025, 1102.0979
5290013, 342.4830, 1102.0979
5290014, 395.9796, 1102.0979
5290015, 460.1755, 1102.0979
5290016, 537.2106, 1102.0979
5290017, 629.6528, 1102.0979
5290018, 740.5833, 1102.0979
5290019, 873.7000, 1102.0979
5290020, 1033.4400, 1102.0979
5290021, 1225.1280, 1102.0979
5290022, 1455.1536, 1102.0979
5290023, 1500.0000, 1102.0979
5300000, 100.0000, 1142.0979
5300001, 105.0000, 1142.0979
5300002, 111.0000, 1142.0979
5300003, 118.2000, 1142.0979
5300004, 126.8400, 1142.0979
5300005, 137.2080, 1142.0979
5300006, 149.6496, 1142.0979
5300007, 164.5795, 1142.0979
5300008, 182.4954, 1142.0979
5300009, 203.9945, 1142.0979
5300010, 229.7934, 1142.0979
5300011, 260.7521, 1142.0979
5300012, 297.9025, 1142.0979
5300013, 342.4830, 1142.0979
5300014, 395.9796, 1142.0979
5300015, 460.1755, 1142.0979
5300016, 537.2106, 1142.0979
5300017, 629.6528, 1142.0979
5300018, 740.5833, 1142.0979
5300019, 873.7000, 1142.0979
5300020, 1033.4400, 1142.0979
5300021, 1225.1280, 1142.0979
5300022, 1455.1536, 1142.0979
5300023, 1500.0000, 1142.0979
5310000, 100.0000, 1182.0979
5310001, 105.0000, 1182.0979
5310002, 111.0000, 1182.0979
5310003, 118.2000, 1182.0979
5310004, 126.8400, 1182.0979
5310005, 137.2080, 1182.0979
5310006, 149.6496, 1182.0979
5310007, 164.5795, 1182.0979
5310008, 182.4954, 1182.0979
5310009, 203.9945, 1182.0979
5310010, 229.7934, 1182.0979
5310011, 260.7521, 1182.0979
5310012, 297.9025, 1182.0979
5310013, 342.4830, 1182.0979
5310014, 395.9796, 1182.0979
5310015, 460.1755, 1182.0979
5310016, 537.2106, 1182.0979
5310017, 629.6528, 1182.0979
5310018, 740.5833, 1182.0979
5310019, 873.7000, 1182.0979
5310020, 1033.4400, 1182.0979
5310021, 1225.1280, 1182.0979
5310022, 1455.1536, 1182.0979
5310023, 1500.0000, 1182.0979
5320000, 100.0000, 1222.0979
5320001, 105.0000, 1222.0979
5320002, 111.0000, 1222.0979
5320003, 118.2000, 1222.0979
5320004, 126.8400, 1222.0979
5320005, 137.2080, 1222.0979
5320006, 149.6496, 1222.0979
5320007, 164.5795, 1222.0979
5320008, 182.4954, 1222.0979
5320009, 203.9945, 1222.0979
5320010, 229.7934, 1222.0979
5320011, 260.7521, 1222.0979
5320012, 297.9025, 1222.0979
5320013, 342.4830, 1222.0979
5320014, 395.9796, 1222.0979
5320015, 460.1755, 1222.0979
5320016, 537.2106, 1222.0979
5320017, 629.6528, 1222.0979
5320018, 740.5833, 1222.0979
5320019, 873.7000, 1222.0979
5320020, 1033.4400, 1222.0979
5320021, 1225.1280, 1222.0979
5320022, 1455.1536, 1222.0979
5320023, 1500.0000, 1222.0979
5330000, 100.0000, 1262.0979
5330001, 105.0000, 1262.0979
5330002, 111.0000, 1262.0979
5330003, 118.2000, 1262.0979
5330004, 126.8400, 1262.0979
5330005, 137.2080, 1262.0979
5330006, 149.6496, 1262.0979
5330007, 164.5795, 1262.0979
5330008, 182.4954, 1262.0979
5330009, 203.9945, 1262.0979
5330010, 229.7934, 1262.0979
5330011, 260.7521, 1262.0979
5330012, 297.9025, 1262.0979
5330013, 342.4830, 1262.0979
5330014, 395.9796, 1262.0979
5330015, 460.1755, 1262.0979
5330016, 537.2106, 1262.0979
5330017, 629.6528, 1262.0979
5330018, 740.5833, 1262.0979
5330019, 873.7000, 1262.0979
5330020, 1033.4400, 1262.0979
5330021, 1225.1280, 1262.0979
5330022, 1455.1536, 1262.0979
5330023, 1500.0000, 1262.0979
5340000, 100.0000, 1297.4765
5340001, 105.0000, 1297.4765
5340002, 111.0000, 1297.4765
5340003, 118.2000, 1297.4765
5340004, 126.8400, 1297.4765
5340005, 137.2080, 1297.4765
5340006, 149.6496, 1297.4765
5340007, 164.5795, 1297.4765
5340008, 182.4954, 1297.4765
5340009, 203.9945, 1297.4765
5340010, 229.7934, 1297.4765
5340011, 260.7521, 1297.4765
5340012, 297.9025, 1297.4765
5340013, 342.4830, 1297.4765
5340014, 395.9796, 1297.4765
5340015, 460.1755, 1297.4765
5340016, 537.2106, 1297.4765
5340017, 629.6528, 1297.4765
5340018, 740.5833, 1297.4765
5340019, 873.7000, 1297.4765
5340020, 1033.4400, 1297.4765
5340021, 1225.1280, 1297.4765
5340022, 1455.1536, 1297.4765
5340023, 1500.0000, 1297.4765
5350000, 100.0000, 1328.2404
5350001, 105.0000, 1328.2404
5350002, 111.0000, 1328.2404
5350003, 118.2000, 1328.2404
5350004, 126.8400, 1328.2404
5350005, 137.2080, 1328.2404
5350006, 149.6496, 1328.2404
5350007, 164.5795, 1328.2404
5350008, 182.4954, 1328.2404
5350009, 203.9945, 1328.2404
5350010, 229.7934, 1328.2404
5350011, 260.7521, 1328.2404
5350012, 297.9025, 1328.2404
5350013, 342.4830, 1328.2404
5350014, 395.9796, 1328.2404
5350015, 460.1755, 1328.2404
5350016, 537.2106, 1328.2404
5350017, 629.6528, 1328.2404
5350018, 740.5833, 1328.2404
5350019, 873.7000, 1328.2404
5350020, 1033.4400, 1328.2404
5350021, 1225.1280, 1328.2404
5350022, 1455.1536, 1328.2404
5350023, 1500.0000, 1328.2404
5360000, 100.0000, 1354.9917
5360001, 105.0000, 1354.9917
5360002, 111.0000, 1354.9917
5360003, 118.2000, 1354.9917
5360004, 126.8400, 1354.9917
5360005, 137.2080, 1354.9917
5360006, 149.6496, 1354.9917
5360007, 164.5795, 1354.9917
5360008, 182.4954, 1354.9917
5360009, 203.9945, 1354.9917
5360010, 229.7934, 1354.9917
5360011, 260.7521, 1354.9917
5360012, 297.9025, 1354.9917
5360013, 342.4830, 1354.9917
5360014, 395.9796, 1354.9917
5360015, 460.1755, 1354.9917
5360016, 537.2106, 1354.9917
5360017, 629.6528, 1354.9917
5360018, 740.5833, 1354.9917
5360019, 873.7000, 1354.9917
5360020, 1033.4400, 1354.9917
5360021, 1225.1280, 1354.9917
5360022, 1455.1536, 1354.9917
5360023, 1500.0000, 1354.9917
5370000, 100.0000, 1378.2536
5370001, 105.0000, 1378.2536
5370002, 111.0000, 1378.2536
5370003, 118.2000, 1378.2536
5370004, 126.8400, 1378.2536
5370005, 137.2080, 1378.2536
5370006, 149.6496, 1378.2536
5370007, 164.5795, 1378.2536
5370008, 182.4954, 1378.2536
5370009, 203.9945, 1378.2536
5370010, 229.7934, 1378.2536
5370011, 260.7521, 1378.2536
5370012, 297.9025, 1378.2536
5370013, 342.4830, 1378.2536
5370014, 395.9796, 1378.2536
5370015, 460.1755, 1378.2536
5370016, 537.2106, 1378.2536
5370017, 629.6528, 1378.2536
5370018, 740.5833, 1378.2536
5370019, 873.7000, 1378.2536
5370020, 1033.4400, 1378.2536
5370021, 1225.1280, 1378.2536
5370022, 1455.1536, 1378.2536
5370023, 1500.0000, 1378.2536
5380000, 100.0000, 1398.4814
5380001, 105.0000, 1398.4814
5380002, 111.0000, 1398.4814
5380003, 118.2000, 1398.4814
5380004, 126.8400, 1398.4814
5380005, 137.2080, 1398.4814
5380006, 149.6496, 1398.4814
5380007, 164.5795, 1398.4814
5380008, 182.4954, 1398.4814
5380009, 203.9945, 1398.4814
5380010, 229.7934, 1398.4814
5380011, 260.7521, 1398.4814
5380012, 297.9025, 1398.4814
5380013, 342.4830, 1398.4814
5380014, 395.9796, 1398.4814
5380015, 460.1755, 1398.4814
5380016, 537.2106, 1398.4814
5380017, 629.6528, 1398.4814
5380018, 740.5833, 1398.4814
5380019, 873.7000, 1398.4814
5380020, 1033.4400, 1398.4814
5380021, 1225.1280, 1398.4814
5380022, 1455.1536, 1398.4814
5380023, 1500.0000, 1398.4814
5390000, 100.0000, 1400.0000
5390001, 105.0000, 1400.0000
5390002, 111.0000, 1400.0000
5390003, 118.2000, 1400.0000
5390004, 126.8400, 1400.0000
5390005, 137.2080, 1400.0000
5390006, 149.6496, 1400.0000
5390007, 164.5795, 1400.0000
5390008, 182.4954, 1400.0000
5390009, 203.9945, 1400.0000
5390010, 229.7934, 1400.0000
5390011, 260.7521, 1400.0000
5390012, 297.9025, 1400.0000
5390013, 342.4830, 1400.0000
5390014, 395.9796, 1400.0000
5390015, 460.1755, 1400.0000
5390016, 537.2106, 1400.0000
5390017, 629.6528, 1400.0000
5390018, 740.5833, 1400.0000
5390019, 873.7000, 1400.0000
5390020, 1033.4400, 1400.0000
5390021, 1225.1280, 1400.0000
5390022, 1455.1536, 1400.0000
5390023, 1500.0000, 1400.0000
5400000, 100.0000, 1416.0708
5400001, 105.0000, 1416.0708
5400002, 111.0000, 1416.0708
5400003, 118.2000, 1416.0708
5400004, 126.8400, 1416.0708
5400005, 137.2080, 1416.0708
5400006, 149.6496, 1416.0708
5400007, 164.5795, 1416.0708
5400008, 182.4954, 1416.0708
5400009, 203.9945, 1416.0708
5400010, 229.7934, 1416.0708
5400011, 260.7521, 1416.0708
5400012, 297.9025, 1416.0708
5400013, 342.4830, 1416.0708
5400014, 395.9796, 1416.0708
5400015, 460.1755, 1416.0708
5400016, 537.2106, 1416.0708
5400017, 629.6528, 1416.0708
5400018, 740.5833, 1416.0708
5400019, 873.7000, 1416.0708
5400020, 1033.4400, 1416.0708
5400021, 1225.1280, 1416.0708
5400022, 1455.1536, 1416.0708
5400023, 1500.0000, 1416.0708
5410000, 100.0000, 1431.3659
5410001, 105.0000, 1431.3659
5410002, 111.0000, 1431.3659
5410003, 118.2000, 1431.3659
5410004, 126.8400, 1431.3659
5410005, 137.2080, 1431.3659
5410006, 149.6496, 1431.3659
5410007, 164.5795, 1431.3659
5410008, 182.4954, 1431.3659
5410009, 203.9945, 1431.3659
5410010, 229.7934, 1431.3659
5410011, 260.7521, 1431.3659
5410012, 297.9025, 1431.3659
5410013, 342.4830, 1431.3659
5410014, 395.9796, 1431.3659
5410015, 460.1755, 1431.3659
5410016, 537.2106, 1431.3659
5410017, 629.6528, 1431.3659
5410018, 740.5833, 1431.3659
5410019, 873.7000, 1431.3659
5410020, 1033.4400, 1431.3659
5410021, 1225.1280, 1431.3659
5410022, 1455.1536, 1431.3659
5410023, 1500.0000, 1431.3659
5420000, 100.0000, 1444.6660
5420001, 105.0000, 1444.6660
5420002, 111.0000, 1444.6660
5420003, 118.2000, 1444.6660
5420004, 126.8400, 1444.6660
5420005, 137.2080, 1444.6660
5420006, 149.6496, 1444.6660
5420007, 164.5795, 1444.6660
5420008, 182.4954, 1444.6660
5420009, 203.9945, 1444.6660
5420010, 229.7934, 1444.6660
5420011, 260.7521, 1444.6660
5420012, 297.9025, 1444.6660
5420013, 342.4830, 1444.6660
5420014, 395.9796, 1444.6660
5420015, 460.1755, 1444.6660
5420016, 537.2106, 1444.6660
5420017, 629.6528, 1444.6660
5420018, 740.5833, 1444.6660
5420019, 873.7000, 1444.6660
5420020, 1033.4400, 1444.6660
5420021, 1225.1280, 1444.6660
5420022, 1455.1536, 1444.6660
5420023, 1500.0000, 1444.6660
5430000, 100.0000, 1456.2313
5430001, 105.0000, 1456.2313
5430002, 111.0000, 1456.2313
5430003, 118.2000, 1456.2313
5430004, 126.8400, 1456.2313
5430005, 137.2080, 1456.2313
5430006, 149.6496, 1456.2313
5430007, 164.5795, 1456.2313
5430008, 182.4954, 1456.2313
5430009, 203.9945, 1456.2313
5430010, 229.7934, 1456.2313
5430011, 260.7521, 1456.2313
5430012, 297.9025, 1456.2313
5430013, 342.4830, 1456.2313
5430014, 395.9796, 1456.2313
5430015, 460.1755, 1456.2313
5430016, 537.2106, 1456.2313
5430017, 629.6528, 1456.2313
5430018, 740.5833, 1456.2313
5430019, 873.7000, 1456.2313
5430020, 1033.4400, 1456.2313
5430021, 1225.1280, 1456.2313
5430022, 1455.1536, 1456.2313
5430023, 1500.0000, 1456.2313
5440000, 100.0000, 1466.2881
5440001, 105.0000, 1466.2881
5440002, 111.0000, 1466.2881
5440003, 118.2000, 1466.2881
5440004, 126.8400, 1466.2881
5440005, 137.2080, 1466.2881
5440006, 149.6496, 1466.2881
5440007, 164.5795, 1466.2881
5440008, 182.4954, 1466.2881
5440009, 203.9945, 1466.2881
5440010, 229.7934, 1466.2881
5440011, 260.7521, 1466.2881
5440012, 297.9025, 1466.2881
5440013, 342.4830, 1466.2881
5440014, 395.9796, 1466.2881
5440015, 460.1755, 1466.2881
5440016, 537.2106, 1466.2881
5440017, 629.6528, 1466.2881
5440018, 740.5833, 1466.2881
5440019, 873.7000, 1466.2881
5440020, 1033.4400, 1466.2881
5440021, 1225.1280, 1466.2881
5440022, 1455.1536, 1466.2881
5440023, 1500.0000, 1466.2881
5450000, 100.0000, 1475.0331
5450001, 105.0000, 1475.0331
5450002, 111.0000, 1475.0331
5450003, 118.2000, 1475.0331
5450004, 126.8400, 1475.0331
5450005, 137.2080, 1475.0331
5450006, 149.6496, 1475.0331
5450007, 164.5795, 1475.0331
5450008, 182.4954, 1475.0331
5450009, 203.9945, 1475.0331
5450010, 229.7934, 1475.0331
5450011, 260.7521, 1475.0331
5450012, 297.9025, 1475.0331
5450013, 342.4830, 1475.0331
5450014, 395.9796, 1475.0331
5450015, 460.1755, 1475.0331
5450016, 537.2106, 1475.0331
5450017, 629.6528, 1475.0331
5450018, 740.5833, 1475.0331
5450019, 873.7000, 1475.0331
5450020, 1033.4400, 1475.0331
5450021, 1225.1280, 1475.0331
5450022, 1455.1536, 1475.0331
5450023, 1500.0000, 1475.0331
5460000, 100.0000, 1482.6375
5460001, 105.0000, 1482.6375
5460002, 111.0000, 1482.6375
5460003, 118.2000, 1482.6375
5460004, 126.8400, 1482.6375
5460005, 137.2080, 1482.6375
5460006, 149.6496, 1482.6375
5460007, 164.5795, 1482.6375
5460008, 182.4954, 1482.6375
5460009, 203.9945, 1482.6375
5460010, 229.7934, 1482.6375
5460011, 260.7521, 1482.6375
5460012, 297.9025, 1482.6375
5460013, 342.4830, 1482.6375
5460014, 395.9796, 1482.6375
5460015, 460.1755, 1482.6375
5460016, 537.2106, 1482.6375
5460017, 629.6528, 1482.6375
5460018, 740.5833, 1482.6375
5460019, 873.7000, 1482.6375
5460020, 1033.4400, 1482.6375
5460021, 1225.1280, 1482.6375
5460022, 1455.1536, 1482.6375
5460023, 1500.0000, 1482.6375
5470000, 100.0000, 1489.2500
5470001, 105.0000, 1489.2500
5470002, 111.0000, 1489.2500
5470003, 118.2000, 1489.2500
5470004, 126.8400, 1489.2500
5470005, 137.2080, 1489.2500
5470006, 149.6496, 1489.2500
5470007, 164.5795, 1489.2500
5470008, 182.4954, 1489.2500
5470009, 203.9945, 1489.2500
5470010, 229.7934, 1489.2500
5470011, 260.7521, 1489.2500
5470012, 297.9025, 1489.2500
5470013, 342.4830, 1489.2500
5470014, 395.9796, 1489.2500
5470015, 460.1755, 1489.2500
5470016, 537.2106, 1489.2500
5470017, 629.6528, 1489.2500
5470018, 740.5833, 1489.2500
5470019, 873.7000, 1489.2500
5470020, 1033.4400, 1489.2500
5470021, 1225.1280, 1489.2500
5470022, 1455.1536, 1489.2500
5470023, 1500.0000, 1489.2500
5480000, 100.0000, 1495.0000
5480001, 105.0000, 1495.0000
5480002, 111.0000, 1495.0000
5480003, 118.2000, 1495.0000
5480004, 126.8400, 1495.0000
5480005, 137.2080, 1495.0000
5480006, 149.6496, 1495.0000
5480007, 164.5795, 1495.0000
5480008, 182.4954, 1495.0000
5480009, 203.9945, 1495.0000
5480010, 229.7934, 1495.0000
5480011, 260.7521, 1495.0000
5480012, 297.9025, 1495.0000
5480013, 342.4830, 1495.0000
5480014, 395.9796, 1495.0000
5480015, 460.1755, 1495.0000
5480016, 537.2106, 1495.0000
5480017, 629.6528, 1495.0000
5480018, 740.5833, 1495.0000
5480019, 873.7000, 1495.0000
5480020, 1033.4400, 1495.0000
5480021, 1225.1280, 1495.0000
5480022, 1455.1536, 1495.0000
5480023, 1500.0000, 1495.0000
5490000, 100.0000, 1500.0000
5490001, 105.0000, 1500.0000
5490002, 111.0000, 1500.0000
5490003, 118.2000, 1500.0000
5490004, 126.8400, 1500.0000
5490005, 137.2080, 1500.0000
5490006, 149.6496, 1500.0000
5490007, 164.5795, 1500.0000
5490008, 182.4954, 1500.0000
5490009, 203.9945, 1500.0000
5490010, 229.7934, 1500.0000
5490011, 260.7521, 1500.0000
5490012, 297.9025, 1500.0000
5490013, 342.4830, 1500.0000
5490014, 395.9796, 1500.0000
5490015, 460.1755, 1500.0000
5490016, 537.2106, 1500.0000
5490017, 629.6528, 1500.0000
5490018, 740.5833, 1500.0000
5490019, 873.7000, 1500.0000
5490020, 1033.4400, 1500.0000
5490021, 1225.1280, 1500.0000
5490022, 1455.1536, 1500.0000
5490023, 1500.0000, 1500.0000
*ELEMENT, TYPE=CAX4R
1, 1, 2, 10002, 10001
2, 2, 3, 10003, 10002
3, 3, 4, 10004, 10003
4, 4, 5, 10005, 10004
5, 5, 6, 10006, 10005
6, 6, 7, 10007, 10006
7, 7, 8, 10008, 10007
8, 8, 9, 10009, 10008
9, 9, 10, 10010, 10009
10, 10, 11, 10011, 10010
11, 11, 12, 10012, 10011
12, 12, 13, 10013, 10012
13, 13, 14, 10014, 10013
14, 14, 15, 10015, 10014
15, 15, 16, 10016, 10015
16, 16, 17, 10017, 10016
17, 17, 18, 10018, 10017
18, 18, 19, 10019, 10018
19, 19, 20, 10020, 10019
20, 20, 21, 10021, 10020
21, 5000000, 5000001, 5010001, 5010000
22, 5000001, 5000002, 5010002, 5010001
23, 5000002, 5000003, 5010003, 5010002
24, 5000003, 5000004, 5010004, 5010003
25, 5000004, 5000005, 5010005, 5010004
26, 5000005, 5000006, 5010006, 5010005
27, 5000006, 5000007, 5010007, 5010006
28, 5000007, 5000008, 5010008, 5010007
29, 5000008, 5000009, 5010009, 5010008
30, 5000009, 5000010, 5010010, 5010009
31, 5000010, 5000011, 5010011, 5010010
32, 5000011, 5000012, 5010012, 5010011
33, 5000012, 5000013, 5010013, 5010012
34, 5000013, 5000014, 5010014, 5010013
35, 5000014, 5000015, 5010015, 5010014
36, 5000015, 5000016, 5010016, 5010015
37, 5000016, 5000017, 5010017, 5010016
38, 5000017, 5000018, 5010018, 5010017
39, 5000018, 5000019, 5010019, 5010018
40, 5000019, 5000020, 5010020, 5010019
41, 5000020, 5000021, 5010021, 5010020
42, 5000021, 5000022, 5010022, 5010021
43, 5000022, 5000023, 5010023, 5010022
44, 10001, 10002, 20002, 20001
45, 10002, 10003, 20003, 20002
46, 10003, 10004, 20004, 20003
47, 10004, 10005, 20005, 20004
48, 10005, 10006, 20006, 20005
49, 10006, 10007, 20007, 20006
50, 10007, 10008, 20008, 20007
51, 10008, 10009, 20009, 20008
52, 10009, 10010, 20010, 20009
53, 10010, 10011, 20011, 20010
54, 10011, 10012, 20012, 20011
55, 10012, 10013, 20013, 20012
56, 10013, 10014, 20014, 20013
57, 10014, 10015, 20015, 20014
58, 10015, 10016, 20016, 20015
59, 10016, 10017, 20017, 20016
60, 10017, 10018, 20018, 20017
61, 10018, 10019, 20019, 20018
62, 10019, 10020, 20020, 20019
63, 10020, 10021, 20021, 20020
64, 5010000, 5010001, 5020001, 5020000
65, 5010001, 5010002, 5020002, 5020001
66, 5010002, 5010003, 5020003, 5020002
67, 5010003, 5010004, 5020004, 5020003
68, 5010004, 5010005, 5020005, 5020004
69, 5010005, 5010006, 5020006, 5020005
70, 5010006, 5010007, 5020007, 5020006
71, 5010007, 5010008, 5020008, 5020007
72, 5010008, 5010009, 5020009, 5020008
73, 5010009, 5010010, 5020010, 5020009
74, 5010010, 5010011, 5020011, 5020010
75, 5010011, 5010012, 5020012, 5020011
76, 5010012, 5010013, 5020013, 5020012
77, 5010013, 5010014, 5020014, 5020013
78, 5010014, 5010015, 5020015, 5020014
79, 5010015, 5010016, 5020016, 5020015
80, 5010016, 5010017, 5020017, 5020016
81, 5010017, 5010018, 5020018, 5020017
82, 5010018, 5010019, 5020019, 5020018
83, 5010019, 5010020, 5020020, 5020019
84, 5010020, 5010021, 5020021, 5020020
85, 5010021, 5010022, 5020022, 5020021
86, 5010022, 5010023, 5020023, 5020022
87, 20001, 20002, 30002, 30001
88, 20002, 20003, 30003, 30002
89, 20003, 20004, 30004, 30003
90, 20004, 20005, 30005, 30004
91, 20005, 20006, 30006, 30005
92, 20006, 20007, 30007, 30006
93, 20007, 20008, 30008, 30007
94, 20008, 20009, 30009, 30008
95, 20009, 20010, 30010, 30009
96, 20010, 20011, 30011, 30010
97, 20011, 20012, 30012, 30011
98, 20012, 20013, 30013, 30012
99, 20013, 20014, 30014, 30013
100, 20014, 20015, 30015, 30014
101, 20015, 20016, 30016, 30015
102, 20016, 20017, 30017, 30016
103, 20017, 20018, 30018, 30017
104, 20018, 20019, 30019, 30018
105, 20019, 20020, 30020, 30019
106, 20020, 20021, 30021, 30020
107, 5020000, 5020001, 5030001, 5030000
108, 5020001, 5020002, 5030002, 5030001
109, 5020002, 5020003, 5030003, 5030002
110, 5020003, 5020004, 5030004, 5030003
111, 5020004, 5020005, 5030005, 5030004
112, 5020005, 5020006, 5030006, 5030005
113, 5020006, 5020007, 5030007, 5030006
114, 5020007, 5020008, 5030008, 5030007
115, 5020008, 5020009, 5030009, 5030008
116, 5020009, 5020010, 5030010, 5030009
117, 5020010, 5020011, 5030011, 5030010
118, 5020011, 5020012, 5030012, 5030011
119, 5020012, 5020013, 5030013, 5030012
120, 5020013, 5020014, 5030014, 5030013
121, 5020014, 5020015, 5030015, 5030014
122, 5020015, 5020016, 5030016, 5030015
123, 5020016, 5020017, 5030017, 5030016
124, 5020017, 5020018, 5030018, 5030017
125, 5020018, 5020019, 5030019, 5030018
126, 5020019, 5020020, 5030020, 5030019
127, 5020020, 5020021, 5030021, 5030020
128, 5020021, 5020022, 5030022, 5030021
129, 5020022, 5020023, 5030023, 5030022
130, 30001, 30002, 40002, 40001
131, 30002, 30003, 40003, 40002
132, 30003, 30004, 40004, 40003
133, 30004, 30005, 40005, 40004
134, 30005, 30006, 40006, 40005
135, 30006, 30007, 40007, 40006
136, 30007, 30008, 40008, 40007
137, 30008, 30009, 40009, 40008
138, 30009, 30010, 40010, 40009
139, 30010, 30011, 40011, 40010
140, 30011, 30012, 40012, 40011
141, 30012, 30013, 40013, 40012
142, 30013, 30014, 40014, 40013
143, 30014, 30015, 40015, 40014
144, 30015, 30016, 40016, 40015
145, 30016, 30017, 40017, 40016
146, 30017, 30018, 40018, 40017
147, 30018, 30019, 40019, 40018
148, 30019, 30020, 40020, 40019
149, 30020, 30021, 40021, 40020
150, 5030000, 5030001, 5040001, 5040000
151, 5030001, 5030002, 5040002, 5040001
152, 5030002, 5030003, 5040003, 5040002
153, 5030003, 5030004, 5040004, 5040003
154, 5030004, 5030005, 5040005, 5040004
155, 5030005, 5030006, 5040006, 5040005
156, 5030006, 5030007, 5040007, 5040006
157, 5030007, 5030008, 5040008, 5040007
158, 5030008, 5030009, 5040009, 5040008
159, 5030009, 5030010, 5040010, 5040009
160, 5030010, 5030011, 5040011, 5040010
161, 5030011, 5030012, 5040012, 5040011
162, 5030012, 5030013, 5040013, 5040012
163, 5030013, 5030014, 5040014, 5040013
164, 5030014, 5030015, 5040015, 5040014
165, 5030015, 5030016, 5040016, 5040015
166, 5030016, 5030017, 5040017, 5040016
167, 5030017, 5030018, 5040018, 5040017
168, 5030018, 5030019, 5040019, 5040018
169, 5030019, 5030020, 5040020, 5040019
170, 5030020, 5030021, 5040021, 5040020
171, 5030021, 5030022, 5040022, 5040021
172, 5030022, 5030023, 5040023, 5040022
173, 40001, 40002, 50002, 50001
174, 40002, 40003, 50003, 50002
175, 40003, 40004, 50004, 50003
176, 40004, 40005, 50005, 50004
177, 40005, 40006, 50006, 50005
178, 40006, 40007, 50007, 50006
179, 40007, 40008, 50008, 50007
180, 40008, 40009, 50009, 50008
181, 40009, 40010, 50010, 50009
182, 40010, 40011, 50011, 50010
183, 40011, 40012, 50012, 50011
184, 40012, 40013, 50013, 50012
185, 40013, 40014, 50014, 50013
186, 40014, 40015, 50015, 50014
187, 40015, 40016, 50016, 50015
188, 40016, 40017, 50017, 50016
189, 40017, 40018, 50018, 50017
190, 40018, 40019, 50019, 50018
191, 40019, 40020, 50020, 50019
192, 40020, 40021, 50021, 50020
193, 5040000, 5040001, 5050001, 5050000
194, 5040001, 5040002, 5050002, 5050001
195, 5040002, 5040003, 5050003, 5050002
196, 5040003, 5040004, 5050004, 5050003
197, 5040004, 5040005, 5050005, 5050004
198, 5040005, 5040006, 5050006, 5050005
199, 5040006, 5040007, 5050007, 5050006
200, 5040007, 5040008, 5050008, 5050007
201, 5040008, 5040009, 5050009, 5050008
202, 5040009, 5040010, 5050010, 5050009
203, 5040010, 5040011, 5050011, 5050010
204, 5040011, 5040012, 5050012, 5050011
205, 5040012, 5040013, 5050013, 5050012
206, 5040013, 5040014, 5050014, 5050013
207, 5040014, 5040015, 5050015, 5050014
208, 5040015, 5040016, 5050016, 5050015
209, 5040016, 5040017, 5050017, 5050016
210, 5040017, 5040018, 5050018, 5050017
211, 5040018, 5040019, 5050019, 5050018
212, 5040019, 5040020, 5050020, 5050019
213, 5040020, 5040021, 5050021, 5050020
214, 5040021, 5040022, 5050022, 5050021
215, 5040022, 5040023, 5050023, 5050022
216, 50001, 50002, 60002, 60001
217, 50002, 50003, 60003, 60002
218, 50003, 50004, 60004, 60003
219, 50004, 50005, 60005, 60004
220, 50005, 50006, 60006, 60005
221, 50006, 50007, 60007, 60006
222, 50007, 50008, 60008, 60007
223, 50008, 50009, 60009, 60008
224, 50009, 50010, 60010, 60009
225, 50010, 50011, 60011, 60010
226, 50011, 50012, 60012, 60011
227, 50012, 50013, 60013, 60012
228, 50013, 50014, 60014, 60013
229, 50014, 50015, 60015, 60014
230, 50015, 50016, 60016, 60015
231, 50016, 50017, 60017, 60016
232, 50017, 50018, 60018, 60017
233, 50018, 50019, 60019, 60018
234, 50019, 50020, 60020, 60019
235, 50020, 50021, 60021, 60020
236, 5050000, 5050001, 5060001, 5060000
237, 5050001, 5050002, 5060002, 5060001
238, 5050002, 5050003, 5060003, 5060002
239, 5050003, 5050004, 5060004, 5060003
240, 5050004, 5050005, 5060005, 5060004
241, 5050005, 5050006, 5060006, 5060005
242, 5050006, 5050007, 5060007, 5060006
243, 5050007, 5050008, 5060008, 5060007
244, 5050008, 5050009, 5060009, 5060008
245, 5050009, 5050010, 5060010, 5060009
246, 5050010, 5050011, 5060011, 5060010
247, 5050011, 5050012, 5060012, 5060011
248, 5050012, 5050013, 5060013, 5060012
249, 5050013, 5050014, 5060014, 5060013
250, 5050014, 5050015, 5060015, 5060014
251, 5050015, 5050016, 5060016, 5060015
252, 5050016, 5050017, 5060017, 5060016
253, 5050017, 5050018, 5060018, 5060017
254, 5050018, 5050019, 5060019, 5060018
255, 5050019, 5050020, 5060020, 5060019
256, 5050020, 5050021, 5060021, 5060020
257, 5050021, 5050022, 5060022, 5060021
258, 5050022, 5050023, 5060023, 5060022
259, 60001, 60002, 70002, 70001
260, 60002, 60003, 70003, 70002
261, 60003, 60004, 70004, 70003
262, 60004, 60005, 70005, 70004
263, 60005, 60006, 70006, 70005
264, 60006, 60007, 70007, 70006
265, 60007, 60008, 70008, 70007
266, 60008, 60009, 70009, 70008
267, 60009, 60010, 70010, 70009
268, 60010, 60011, 70011, 70010
269, 60011, 60012, 70012, 70011
270, 60012, 60013, 70013, 70012
271, 60013, 60014, 70014, 70013
272, 60014, 60015, 70015, 70014
273, 60015, 60016, 70016, 70015
274, 60016, 60017, 70017, 70016
275, 60017, 60018, 70018, 70017
276, 60018, 60019, 70019, 70018
277, 60019, 60020, 70020, 70019
278, 60020, 60021, 70021, 70020
279, 5060000, 5060001, 5070001, 5070000
280, 5060001, 5060002, 5070002, 5070001
281, 5060002, 5060003, 5070003, 5070002
282, 5060003, 5060004, 5070004, 5070003
283, 5060004, 5060005, 5070005, 5070004
284, 5060005, 5060006, 5070006, 5070005
285, 5060006, 5060007, 5070007, 5070006
286, 5060007, 5060008, 5070008, 5070007
287, 5060008, 5060009, 5070009, 5070008
288, 5060009, 5060010, 5070010, 5070009
289, 5060010, 5060011, 5070011, 5070010
290, 5060011, 5060012, 5070012, 5070011
291, 5060012, 5060013, 5070013, 5070012
292, 5060013, 5060014, 5070014, 5070013
293, 5060014, 5060015, 5070015, 5070014
294, 5060015, 5060016, 5070016, 5070015
295, 5060016, 5060017, 5070017, 5070016
296, 5060017, 5060018, 5070018, 5070017
297, 5060018, 5060019, 5070019, 5070018
298, 5060019, 5060020, 5070020, 5070019
299, 5060020, 5060021, 5070021, 5070020
300, 5060021, 5060022, 5070022, 5070021
301, 5060022, 5060023, 5070023, 5070022
302, 70001, 70002, 80002, 80001
303, 70002, 70003, 80003, 80002
304, 70003, 70004, 80004, 80003
305, 70004, 70005, 80005, 80004
306, 70005, 70006, 80006, 80005
307, 70006, 70007, 80007, 80006
308, 70007, 70008, 80008, 80007
309, 70008, 70009, 80009, 80008
310, 70009, 70010, 80010, 80009
311, 70010, 70011, 80011, 80010
312, 70011, 70012, 80012, 80011
313, 70012, 70013, 80013, 80012
314, 70013, 70014, 80014, 80013
315, 70014, 70015, 80015, 80014
316, 70015, 70016, 80016, 80015
317, 70016, 70017, 80017, 80016
318, 70017, 70018, 80018, 80017
319, 70018, 70019, 80019, 80018
320, 70019, 70020, 80020, 80019
321, 70020, 70021, 80021, 80020
322, 5070000, 5070001, 5080001, 5080000
323, 5070001, 5070002, 5080002, 5080001
324, 5070002, 5070003, 5080003, 5080002
325, 5070003, 5070004, 5080004, 5080003
326, 5070004, 5070005, 5080005, 5080004
327, 5070005, 5070006, 5080006, 5080005
328, 5070006, 5070007, 5080007, 5080006
329, 5070007, 5070008, 5080008, 5080007
330, 5070008, 5070009, 5080009, 5080008
331, 5070009, 5070010, 5080010, 5080009
332, 5070010, 5070011, 5080011, 5080010
333, 5070011, 5070012, 5080012, 5080011
334, 5070012, 5070013, 5080013, 5080012
335, 5070013, 5070014, 5080014, 5080013
336, 5070014, 5070015, 5080015, 5080014
337, 5070015, 5070016, 5080016, 5080015
338, 5070016, 5070017, 5080017, 5080016
339, 5070017, 5070018, 5080018, 5080017
340, 5070018, 5070019, 5080019, 5080018
341, 5070019, 5070020, 5080020, 5080019
342, 5070020, 5070021, 5080021, 5080020
343, 5070021, 5070022, 5080022, 5080021
344, 5070022, 5070023, 5080023, 5080022
345, 80001, 80002, 90002, 90001
346, 80002, 80003, 90003, 90002
347, 80003, 80004, 90004, 90003
348, 80004, 80005, 90005, 90004
349, 80005, 80006, 90006, 90005
350, 80006, 80007, 90007, 90006
351, 80007, 80008, 90008, 90007
352, 80008, 80009, 90009, 90008
353, 80009, 80010, 90010, 90009
354, 80010, 80011, 90011, 90010
355, 80011, 80012, 90012, 90011
356, 80012, 80013, 90013, 90012
357, 80013, 80014, 90014, 90013
358, 80014, 80015, 90015, 90014
359, 80015, 80016, 90016, 90015
360, 80016, 80017, 90017, 90016
361, 80017, 80018, 90018, 90017
362, 80018, 80019, 90019, 90018
363, 80019, 80020, 90020, 90019
364, 80020, 80021, 90021, 90020
365, 5080000, 5080001, 5090001, 5090000
366, 5080001, 5080002, 5090002, 5090001
367, 5080002, 5080003, 5090003, 5090002
368, 5080003, 5080004, 5090004, 5090003
369, 5080004, 5080005, 5090005, 5090004
370, 5080005, 5080006, 5090006, 5090005
371, 5080006, 5080007, 5090007, 5090006
372, 5080007, 5080008, 5090008, 5090007
373, 5080008, 5080009, 5090009, 5090008
374, 5080009, 5080010, 5090010, 5090009
375, 5080010, 5080011, 5090011, 5090010
376, 5080011, 5080012, 5090012, 5090011
377, 5080012, 5080013, 5090013, 5090012
378, 5080013, 5080014, 5090014, 5090013
379, 5080014, 5080015, 5090015, 5090014
380, 5080015, 5080016, 5090016, 5090015
381, 5080016, 5080017, 5090017, 5090016
382, 5080017, 5080018, 5090018, 5090017
383, 5080018, 5080019, 5090019, 5090018
384, 5080019, 5080020, 5090020, 5090019
385, 5080020, 5080021, 5090021, 5090020
386, 5080021, 5080022, 5090022, 5090021
387, 5080022, 5080023, 5090023, 5090022
388, 90001, 90002, 100002, 100001
389, 90002, 90003, 100003, 100002
390, 90003, 90004, 100004, 100003
391, 90004, 90005, 100005, 100004
392, 90005, 90006, 100006, 100005
393, 90006, 90007, 100007, 100006
394, 90007, 90008, 100008, 100007
395, 90008, 90009, 100009, 100008
396, 90009, 90010, 100010, 100009
397, 90010, 90011, 100011, 100010
398, 90011, 90012, 100012, 100011
399, 90012, 90013, 100013, 100012
400, 90013, 90014, 100014, 100013
401, 90014, 90015, 100015, 100014
402, 90015, 90016, 100016, 100015
403, 90016, 90017, 100017, 100016
404, 90017, 90018, 100018, 100017
405, 90018, 90019, 100019, 100018
406, 90019, 90020, 100020, 100019
407, 90020, 90021, 100021, 100020
408, 5090000, 5090001, 5100001, 5100000
409, 5090001, 5090002, 5100002, 5100001
410, 5090002, 5090003, 5100003, 5100002
411, 5090003, 5090004, 5100004, 5100003
412, 5090004, 5090005, 5100005, 5100004
413, 5090005, 5090006, 5100006, 5100005
414, 5090006, 5090007, 5100007, 5100006
415, 5090007, 5090008, 5100008, 5100007
416, 5090008, 5090009, 5100009, 5100008
417, 5090009, 5090010, 5100010, 5100009
418, 5090010, 5090011, 5100011, 5100010
419, 5090011, 5090012, 5100012, 5100011
420, 5090012, 5090013, 5100013, 5100012
421, 5090013, 5090014, 5100014, 5100013
422, 5090014, 5090015, 5100015, 5100014
423, 5090015, 5090016, 5100016, 5100015
424, 5090016, 5090017, 5100017, 5100016
425, 5090017, 5090018, 5100018, 5100017
426, 5090018, 5090019, 5100019, 5100018
427, 5090019, 5090020, 5100020, 5100019
428, 5090020, 5090021, 5100021, 5100020
429, 5090021, 5090022, 5100022, 5100021
430, 5090022, 5090023, 5100023, 5100022
431, 100001, 100002, 110002, 110001
432, 100002, 100003, 110003, 110002
433, 100003, 100004, 110004, 110003
434, 100004, 100005, 110005, 110004
435, 100005, 100006, 110006, 110005
436, 100006, 100007, 110007, 110006
437, 100007, 100008, 110008, 110007
438, 100008, 100009, 110009, 110008
439, 100009, 100010, 110010, 110009
440, 100010, 100011, 110011, 110010
441, 100011, 100012, 110012, 110011
442, 100012, 100013, 110013, 110012
443, 100013, 100014, 110014, 110013
444, 100014, 100015, 110015, 110014
445, 100015, 100016, 110016, 110015
446, 100016, 100017, 110017, 110016
447, 100017, 100018, 110018, 110017
448, 100018, 100019, 110019, 110018
449, 100019, 100020, 110020, 110019
450, 100020, 100021, 110021, 110020
451, 5100000, 5100001, 5110001, 5110000
452, 5100001, 5100002, 5110002, 5110001
453, 5100002, 5100003, 5110003, 5110002
454, 5100003, 5100004, 5110004, 5110003
455, 5100004, 5100005, 5110005, 5110004
456, 5100005, 5100006, 5110006, 5110005
457, 5100006, 5100007, 5110007, 5110006
458, 5100007, 5100008, 5110008, 5110007
459, 5100008, 5100009, 5110009, 5110008
460, 5100009, 5100010, 5110010, 5110009
461, 5100010, 5100011, 5110011, 5110010
462, 5100011, 5100012, 5110012, 5110011
463, 5100012, 5100013, 5110013, 5110012
464, 5100013, 5100014, 5110014, 5110013
465, 5100014, 5100015, 5110015, 5110014
466, 5100015, 5100016, 5110016, 5110015
467, 5100016, 5100017, 5110017, 5110016
468, 5100017, 5100018, 5110018, 5110017
469, 5100018, 5100019, 5110019, 5110018
470, 5100019, 5100020, 5110020, 5110019
471, 5100020, 5100021, 5110021, 5110020
472, 5100021, 5100022, 5110022, 5110021
473, 5100022, 5100023, 5110023, 5110022
474, 110001, 110002, 120002, 120001
475, 110002, 110003, 120003, 120002
476, 110003, 110004, 120004, 120003
477, 110004, 110005, 120005, 120004
478, 110005, 110006, 120006, 120005
479, 110006, 110007, 120007, 120006
480, 110007, 110008, 120008, 120007
481, 110008, 110009, 120009, 120008
482, 110009, 110010, 120010, 120009
483, 110010, 110011, 120011, 120010
484, 110011, 110012, 120012, 120011
485, 110012, 110013, 120013, 120012
486, 110013, 110014, 120014, 120013
487, 110014, 110015, 120015, 120014
488, 110015, 110016, 120016, 120015
489, 110016, 110017, 120017, 120016
490, 110017, 110018, 120018, 120017
491, 110018, 110019, 120019, 120018
492, 110019, 110020, 120020, 120019
493, 110020, 110021, 120021, 120020
494, 5110000, 5110001, 5120001, 5120000
495, 5110001, 5110002, 5120002, 5120001
496, 5110002, 5110003, 5120003, 5120002
497, 5110003, 5110004, 5120004, 5120003
498, 5110004, 5110005, 5120005, 5120004
499, 5110005, 5110006, 5120006, 5120005
500, 5110006, 5110007, 5120007, 5120006
501, 5110007, 5110008, 5120008, 5120007
502, 5110008, 5110009, 5120009, 5120008
503, 5110009, 5110010, 5120010, 5120009
504, 5110010, 5110011, 5120011, 5120010
505, 5110011, 5110012, 5120012, 5120011
506, 5110012, 5110013, 5120013, 5120012
507, 5110013, 5110014, 5120014, 5120013
508, 5110014, 5110015, 5120015, 5120014
509, 5110015, 5110016, 5120016, 5120015
510, 5110016, 5110017, 5120017, 5120016
511, 5110017, 5110018, 5120018, 5120017
512, 5110018, 5110019, 5120019, 5120018
513, 5110019, 5110020, 5120020, 5120019
514, 5110020, 5110021, 5120021, 5120020
515, 5110021, 5110022, 5120022, 5120021
516, 5110022, 5110023, 5120023, 5120022
517, 120001, 120002, 130002, 130001
518, 120002, 120003, 130003, 130002
519, 120003, 120004, 130004, 130003
520, 120004, 120005, 130005, 130004
521, 120005, 120006, 130006, 130005
522, 120006, 120007, 130007, 130006
523, 120007, 120008, 130008, 130007
524, 120008, 120009, 130009, 130008
525, 120009, 120010, 130010, 130009
526, 120010, 120011, 130011, 130010
527, 120011, 120012, 130012, 130011
528, 120012, 120013, 130013, 130012
529, 120013, 120014, 130014, 130013
530, 120014, 120015, 130015, 130014
531, 120015, 120016, 130016, 130015
532, 120016, 120017, 130017, 130016
533, 120017, 120018, 130018, 130017
534, 120018, 120019, 130019, 130018
535, 120019, 120020, 130020, 130019
536, 120020, 120021, 130021, 130020
537, 5120000, 5120001, 5130001, 5130000
538, 5120001, 5120002, 5130002, 5130001
539, 5120002, 5120003, 5130003, 5130002
540, 5120003, 5120004, 5130004, 5130003
541, 5120004, 5120005, 5130005, 5130004
542, 5120005, 5120006, 5130006, 5130005
543, 5120006, 5120007, 5130007, 5130006
544, 5120007, 5120008, 5130008, 5130007
545, 5120008, 5120009, 5130009, 5130008
546, 5120009, 5120010, 5130010, 5130009
547, 5120010, 5120011, 5130011, 5130010
548, 5120011, 5120012, 5130012, 5130011
549, 5120012, 5120013, 5130013, 5130012
550, 5120013, 5120014, 5130014, 5130013
551, 5120014, 5120015, 5130015, 5130014
552, 5120015, 5120016, 5130016, 5130015
553, 5120016, 5120017, 5130017, 5130016
554, 5120017, 5120018, 5130018, 5130017
555, 5120018, 5120019, 5130019, 5130018
556, 5120019, 5120020, 5130020, 5130019
557, 5120020, 5120021, 5130021, 5130020
558, 5120021, 5120022, 5130022, 5130021
559, 5120022, 5120023, 5130023, 5130022
560, 130001, 130002, 140002, 140001
561, 130002, 130003, 140003, 140002
562, 130003, 130004, 140004, 140003
563, 130004, 130005, 140005, 140004
564, 130005, 130006, 140006, 140005
565, 130006, 130007, 140007, 140006
566, 130007, 130008, 140008, 140007
567, 130008, 130009, 140009, 140008
568, 130009, 130010, 140010, 140009
569, 130010, 130011, 140011, 140010
570, 130011, 130012, 140012, 140011
571, 130012, 130013, 140013, 140012
572, 130013, 130014, 140014, 140013
573, 130014, 130015, 140015, 140014
574, 130015, 130016, 140016, 140015
575, 130016, 130017, 140017, 140016
576, 130017, 130018, 140018, 140017
577, 130018, 130019, 140019, 140018
578, 130019, 130020, 140020, 140019
579, 130020, 130021, 140021, 140020
580, 5130000, 5130001, 5140001, 5140000
581, 5130001, 5130002, 5140002, 5140001
582, 5130002, 5130003, 5140003, 5140002
583, 5130003, 5130004, 5140004, 5140003
584, 5130004, 5130005, 5140005, 5140004
585, 5130005, 5130006, 5140006, 5140005
586, 5130006, 5130007, 5140007, 5140006
587, 5130007, 5130008, 5140008, 5140007
588, 5130008, 5130009, 5140009, 5140008
589, 5130009, 5130010, 5140010, 5140009
590, 5130010, 5130011, 5140011, 5140010
591, 5130011, 5130012, 5140012, 5140011
592, 5130012, 5130013, 5140013, 5140012
593, 5130013, 5130014, 5140014, 5140013
594, 5130014, 5130015, 5140015, 5140014
595, 5130015, 5130016, 5140016, 5140015
596, 5130016, 5130017, 5140017, 5140016
597, 5130017, 5130018, 5140018, 5140017
598, 5130018, 5130019, 5140019, 5140018
599, 5130019, 5130020, 5140020, 5140019
600, 5130020, 5130021, 5140021, 5140020
601, 5130021, 5130022, 5140022, 5140021
602, 5130022, 5130023, 5140023, 5140022
603, 140001, 140002, 150002, 150001
604, 140002, 140003, 150003, 150002
605, 140003, 140004, 150004, 150003
606, 140004, 140005, 150005, 150004
607, 140005, 140006, 150006, 150005
608, 140006, 140007, 150007, 150006
609, 140007, 140008, 150008, 150007
610, 140008, 140009, 150009, 150008
611, 140009, 140010, 150010, 150009
612, 140010, 140011, 150011, 150010
613, 140011, 140012, 150012, 150011
614, 140012, 140013, 150013, 150012
615, 140013, 140014, 150014, 150013
616, 140014, 140015, 150015, 150014
617, 140015, 140016, 150016, 150015
618, 140016, 140017, 150017, 150016
619, 140017, 140018, 150018, 150017
620, 140018, 140019, 150019, 150018
621, 140019, 140020, 150020, 150019
622, 140020, 140021, 150021, 150020
623, 5140000, 5140001, 5150001, 5150000
624, 5140001, 5140002, 5150002, 5150001
625, 5140002, 5140003, 5150003, 5150002
626, 5140003, 5140004, 5150004, 5150003
627, 5140004, 5140005, 5150005, 5150004
628, 5140005, 5140006, 5150006, 5150005
629, 5140006, 5140007, 5150007, 5150006
630, 5140007, 5140008, 5150008, 5150007
631, 5140008, 5140009, 5150009, 5150008
632, 5140009, 5140010, 5150010, 5150009
633, 5140010, 5140011, 5150011, 5150010
634, 5140011, 5140012, 5150012, 5150011
635, 5140012, 5140013, 5150013, 5150012
636, 5140013, 5140014, 5150014, 5150013
637, 5140014, 5140015, 5150015, 5150014
638, 5140015, 5140016, 5150016, 5150015
639, 5140016, 5140017, 5150017, 5150016
640, 5140017, 5140018, 5150018, 5150017
641, 5140018, 5140019, 5150019, 5150018
642, 5140019, 5140020, 5150020, 5150019
643, 5140020, 5140021, 5150021, 5150020
644, 5140021, 5140022, 5150022, 5150021
645, 5140022, 5140023, 5150023, 5150022
646, 150001, 150002, 160002, 160001
647, 150002, 150003, 160003, 160002
648, 150003, 150004, 160004, 160003
649, 150004, 150005, 160005, 160004
650, 150005, 150006, 160006, 160005
651, 150006, 150007, 160007, 160006
652, 150007, 150008, 160008, 160007
653, 150008, 150009, 160009, 160008
654, 150009, 150010, 160010, 160009
655, 150010, 150011, 160011, 160010
656, 150011, 150012, 160012, 160011
657, 150012, 150013, 160013, 160012
658, 150013, 150014, 160014, 160013
659, 150014, 150015, 160015, 160014
660, 150015, 150016, 160016, 160015
661, 150016, 150017, 160017, 160016
662, 150017, 150018, 160018, 160017
663, 150018, 150019, 160019, 160018
664, 150019, 150020, 160020, 160019
665, 150020, 150021, 160021, 160020
666, 5150000, 5150001, 5160001, 5160000
667, 5150001, 5150002, 5160002, 5160001
668, 5150002, 5150003, 5160003, 5160002
669, 5150003, 5150004, 5160004, 5160003
670, 5150004, 5150005, 5160005, 5160004
671, 5150005, 5150006, 5160006, 5160005
672, 5150006, 5150007, 5160007, 5160006
673, 5150007, 5150008, 5160008, 5160007
674, 5150008, 5150009, 5160009, 5160008
675, 5150009, 5150010, 5160010, 5160009
676, 5150010, 5150011, 5160011, 5160010
677, 5150011, 5150012, 5160012, 5160011
678, 5150012, 5150013, 5160013, 5160012
679, 5150013, 5150014, 5160014, 5160013
680, 5150014, 5150015, 5160015, 5160014
681, 5150015, 5150016, 5160016, 5160015
682, 5150016, 5150017, 5160017, 5160016
683, 5150017, 5150018, 5160018, 5160017
684, 5150018, 5150019, 5160019, 5160018
685, 5150019, 5150020, 5160020, 5160019
686, 5150020, 5150021, 5160021, 5160020
687, 5150021, 5150022, 5160022, 5160021
688, 5150022, 5150023, 5160023, 5160022
689, 160001, 160002, 170002, 170001
690, 160002, 160003, 170003, 170002
691, 160003, 160004, 170004, 170003
692, 160004, 160005, 170005, 170004
693, 160005, 160006, 170006, 170005
694, 160006, 160007, 170007, 170006
695, 160007, 160008, 170008, 170007
696, 160008, 160009, 170009, 170008
697, 160009, 160010, 170010, 170009
698, 160010, 160011, 170011, 170010
699, 160011, 160012, 170012, 170011
700, 160012, 160013, 170013, 170012
701, 160013, 160014, 170014, 170013
702, 160014, 160015, 170015, 170014
703, 160015, 160016, 170016, 170015
704, 160016, 160017, 170017, 170016
705, 160017, 160018, 170018, 170017
706, 160018, 160019, 170019, 170018
707, 160019, 160020, 170020, 170019
708, 160020, 160021, 170021, 170020
709, 5160000, 5160001, 5170001, 5170000
710, 5160001, 5160002, 5170002, 5170001
711, 5160002, 5160003, 5170003, 5170002
712, 5160003, 5160004, 5170004, 5170003
713, 5160004, 5160005, 5170005, 5170004
714, 5160005, 5160006, 5170006, 5170005
715, 5160006, 5160007, 5170007, 5170006
716, 5160007, 5160008, 5170008, 5170007
717, 5160008, 5160009, 5170009, 5170008
718, 5160009, 5160010, 5170010, 5170009
719, 5160010, 5160011, 5170011, 5170010
720, 5160011, 5160012, 5170012, 5170011
721, 5160012, 5160013, 5170013, 5170012
722, 5160013, 5160014, 5170014, 5170013
723, 5160014, 5160015, 5170015, 5170014
724, 5160015, 5160016, 5170016, 5170015
725, 5160016, 5160017, 5170017, 5170016
726, 5160017, 5160018, 5170018, 5170017
727, 5160018, 5160019, 5170019, 5170018
728, 5160019, 5160020, 5170020, 5170019
729, 5160020, 5160021, 5170021, 5170020
730, 5160021, 5160022, 5170022, 5170021
731, 5160022, 5160023, 5170023, 5170022
732, 170001, 170002, 180002, 180001
733, 170002, 170003, 180003, 180002
734, 170003, 170004, 180004, 180003
735, 170004, 170005, 180005, 180004
736, 170005, 170006, 180006, 180005
737, 170006, 170007, 180007, 180006
738, 170007, 170008, 180008, 180007
739, 170008, 170009, 180009, 180008
740, 170009, 170010, 180010, 180009
741, 170010, 170011, 180011, 180010
742, 170011, 170012, 180012, 180011
743, 170012, 170013, 180013, 180012
744, 170013, 170014, 180014, 180013
745, 170014, 170015, 180015, 180014
746, 170015, 170016, 180016, 180015
747, 170016, 170017, 180017, 180016
748, 170017, 170018, 180018, 180017
749, 170018, 170019, 180019, 180018
750, 170019, 170020, 180020, 180019
751, 170020, 170021, 180021, 180020
752, 5170000, 5170001, 5180001, 5180000
753, 5170001, 5170002, 5180002, 5180001
754, 5170002, 5170003, 5180003, 5180002
755, 5170003, 5170004, 5180004, 5180003
756, 5170004, 5170005, 5180005, 5180004
757, 5170005, 5170006, 5180006, 5180005
758, 5170006, 5170007, 5180007, 5180006
759, 5170007, 5170008, 5180008, 5180007
760, 5170008, 5170009, 5180009, 5180008
761, 5170009, 5170010, 5180010, 5180009
762, 5170010, 5170011, 5180011, 5180010
763, 5170011, 5170012, 5180012, 5180011
764, 5170012, 5170013, 5180013, 5180012
765, 5170013, 5170014, 5180014, 5180013
766, 5170014, 5170015, 5180015, 5180014
767, 5170015, 5170016, 5180016, 5180015
768, 5170016, 5170017, 5180017, 5180016
769, 5170017, 5170018, 5180018, 5180017
770, 5170018, 5170019, 5180019, 5180018
771, 5170019, 5170020, 5180020, 5180019
772, 5170020, 5170021, 5180021, 5180020
773, 5170021, 5170022, 5180022, 5180021
774, 5170022, 5170023, 5180023, 5180022
775, 180001, 180002, 190002, 190001
776, 180002, 180003, 190003, 190002
777, 180003, 180004, 190004, 190003
778, 180004, 180005, 190005, 190004
779, 180005, 180006, 190006, 190005
780, 180006, 180007, 190007, 190006
781, 180007, 180008, 190008, 190007
782, 180008, 180009, 190009, 190008
783, 180009, 180010, 190010, 190009
784, 180010, 180011, 190011, 190010
785, 180011, 180012, 190012, 190011
786, 180012, 180013, 190013, 190012
787, 180013, 180014, 190014, 190013
788, 180014, 180015, 190015, 190014
789, 180015, 180016, 190016, 190015
790, 180016, 180017, 190017, 190016
791, 180017, 180018, 190018, 190017
792, 180018, 180019, 190019, 190018
793, 180019, 180020, 190020, 190019
794, 180020, 180021, 190021, 190020
795, 5180000, 5180001, 5190001, 5190000
796, 5180001, 5180002, 5190002, 5190001
797, 5180002, 5180003, 5190003, 5190002
798, 5180003, 5180004, 5190004, 5190003
799, 5180004, 5180005, 5190005, 5190004
800, 5180005, 5180006, 5190006, 5190005
801, 5180006, 5180007, 5190007, 5190006
802, 5180007, 5180008, 5190008, 5190007
803, 5180008, 5180009, 5190009, 5190008
804, 5180009, 5180010, 5190010, 5190009
805, 5180010, 5180011, 5190011, 5190010
806, 5180011, 5180012, 5190012, 5190011
807, 5180012, 5180013, 5190013, 5190012
808, 5180013, 5180014, 5190014, 5190013
809, 5180014, 5180015, 5190015, 5190014
810, 5180015, 5180016, 5190016, 5190015
811, 5180016, 5180017, 5190017, 5190016
812, 5180017, 5180018, 5190018, 5190017
813, 5180018, 5180019, 5190019, 5190018
814, 5180019, 5180020, 5190020, 5190019
815, 5180020, 5180021, 5190021, 5190020
816, 5180021, 5180022, 5190022, 5190021
817, 5180022, 5180023, 5190023, 5190022
818, 190001, 190002, 200002, 200001
819, 190002, 190003, 200003, 200002
820, 190003, 190004, 200004, 200003
821, 190004, 190005, 200005, 200004
822, 190005, 190006, 200006, 200005
823, 190006, 190007, 200007, 200006
824, 190007, 190008, 200008, 200007
825, 190008, 190009, 200009, 200008
826, 190009, 190010, 200010, 200009
827, 190010, 190011, 200011, 200010
828, 190011, 190012, 200012, 200011
829, 190012, 190013, 200013, 200012
830, 190013, 190014, 200014, 200013
831, 190014, 190015, 200015, 200014
832, 190015, 190016, 200016, 200015
833, 190016, 190017, 200017, 200016
834, 190017, 190018, 200018, 200017
835, 190018, 190019, 200019, 200018
836, 190019, 190020, 200020, 200019
837, 190020, 190021, 200021, 200020
838, 5190000, 5190001, 5200001, 5200000
839, 5190001, 5190002, 5200002, 5200001
840, 5190002, 5190003, 5200003, 5200002
841, 5190003, 5190004, 5200004, 5200003
842, 5190004, 5190005, 5200005, 5200004
843, 5190005, 5190006, 5200006, 5200005
844, 5190006, 5190007, 5200007, 5200006
845, 5190007, 5190008, 5200008, 5200007
846, 5190008, 5190009, 5200009, 5200008
847, 5190009, 5190010, 5200010, 5200009
848, 5190010, 5190011, 5200011, 5200010
849, 5190011, 5190012, 5200012, 5200011
850, 5190012, 5190013, 5200013, 5200012
851, 5190013, 5190014, 5200014, 5200013
852, 5190014, 5190015, 5200015, 5200014
853, 5190015, 5190016, 5200016, 5200015
854, 5190016, 5190017, 5200017, 5200016
855, 5190017, 5190018, 5200018, 5200017
856, 5190018, 5190019, 5200019, 5200018
857, 5190019, 5190020, 5200020, 5200019
858, 5190020, 5190021, 5200021, 5200020
859, 5190021, 5190022, 5200022, 5200021
860, 5190022, 5190023, 5200023, 5200022
861, 200001, 200002, 210002, 210001
862, 200002, 200003, 210003, 210002
863, 200003, 200004, 210004, 210003
864, 200004, 200005, 210005, 210004
865, 200005, 200006, 210006, 210005
866, 200006, 200007, 210007, 210006
867, 200007, 200008, 210008, 210007
868, 200008, 200009, 210009, 210008
869, 200009, 200010, 210010, 210009
870, 200010, 200011, 210011, 210010
871, 200011, 200012, 210012, 210011
872, 200012, 200013, 210013, 210012
873, 200013, 200014, 210014, 210013
874, 200014, 200015, 210015, 210014
875, 200015, 200016, 210016, 210015
876, 200016, 200017, 210017, 210016
877, 200017, 200018, 210018, 210017
878, 200018, 200019, 210019, 210018
879, 200019, 200020, 210020, 210019
880, 200020, 200021, 210021, 210020
881, 5200000, 5200001, 5210001, 5210000
882, 5200001, 5200002, 5210002, 5210001
883, 5200002, 5200003, 5210003, 5210002
884, 5200003, 5200004, 5210004, 5210003
885, 5200004, 5200005, 5210005, 5210004
886, 5200005, 5200006, 5210006, 5210005
887, 5200006, 5200007, 5210007, 5210006
888, 5200007, 5200008, 5210008, 5210007
889, 5200008, 5200009, 5210009, 5210008
890, 5200009, 5200010, 5210010, 5210009
891, 5200010, 5200011, 5210011, 5210010
892, 5200011, 5200012, 5210012, 5210011
893, 5200012, 5200013, 5210013, 5210012
894, 5200013, 5200014, 5210014, 5210013
895, 5200014, 5200015, 5210015, 5210014
896, 5200015, 5200016, 5210016, 5210015
897, 5200016, 5200017, 5210017, 5210016
898, 5200017, 5200018, 5210018, 5210017
899, 5200018, 5200019, 5210019, 5210018
900, 5200019, 5200020, 5210020, 5210019
901, 5200020, 5200021, 5210021, 5210020
902, 5200021, 5200022, 5210022, 5210021
903, 5200022, 5200023, 5210023, 5210022
904, 210001, 210002, 220002, 220001
905, 210002, 210003, 220003, 220002
906, 210003, 210004, 220004, 220003
907, 210004, 210005, 220005, 220004
908, 210005, 210006, 220006, 220005
909, 210006, 210007, 220007, 220006
910, 210007, 210008, 220008, 220007
911, 210008, 210009, 220009, 220008
912, 210009, 210010, 220010, 220009
913, 210010, 210011, 220011, 220010
914, 210011, 210012, 220012, 220011
915, 210012, 210013, 220013, 220012
916, 210013, 210014, 220014, 220013
917, 210014, 210015, 220015, 220014
918, 210015, 210016, 220016, 220015
919, 210016, 210017, 220017, 220016
920, 210017, 210018, 220018, 220017
921, 210018, 210019, 220019, 220018
922, 210019, 210020, 220020, 220019
923, 210020, 210021, 220021, 220020
924, 5210000, 5210001, 5220001, 5220000
925, 5210001, 5210002, 5220002, 5220001
926, 5210002, 5210003, 5220003, 5220002
927, 5210003, 5210004, 5220004, 5220003
928, 5210004, 5210005, 5220005, 5220004
929, 5210005, 5210006, 5220006, 5220005
930, 5210006, 5210007, 5220007, 5220006
931, 5210007, 5210008, 5220008, 5220007
932, 5210008, 5210009, 5220009, 5220008
933, 5210009, 5210010, 5220010, 5220009
934, 5210010, 5210011, 5220011, 5220010
935, 5210011, 5210012, 5220012, 5220011
936, 5210012, 5210013, 5220013, 5220012
937, 5210013, 5210014, 5220014, 5220013
938, 5210014, 5210015, 5220015, 5220014
939, 5210015, 5210016, 5220016, 5220015
940, 5210016, 5210017, 5220017, 5220016
941, 5210017, 5210018, 5220018, 5220017
942, 5210018, 5210019, 5220019, 5220018
943, 5210019, 5210020, 5220020, 5220019
944, 5210020, 5210021, 5220021, 5220020
945, 5210021, 5210022, 5220022, 5220021
946, 5210022, 5210023, 5220023, 5220022
947, 220001, 220002, 230002, 230001
948, 220002, 220003, 230003, 230002
949, 220003, 220004, 230004, 230003
950, 220004, 220005, 230005, 230004
951, 220005, 220006, 230006, 230005
952, 220006, 220007, 230007, 230006
953, 220007, 220008, 230008, 230007
954, 220008, 220009, 230009, 230008
955, 220009, 220010, 230010, 230009
956, 220010, 220011, 230011, 230010
957, 220011, 220012, 230012, 230011
958, 220012, 220013, 230013, 230012
959, 220013, 220014, 230014, 230013
960, 220014, 220015, 230015, 230014
961, 220015, 220016, 230016, 230015
962, 220016, 220017, 230017, 230016
963, 220017, 220018, 230018, 230017
964, 220018, 220019, 230019, 230018
965, 220019, 220020, 230020, 230019
966, 220020, 220021, 230021, 230020
967, 5220000, 5220001, 5230001, 5230000
968, 5220001, 5220002, 5230002, 5230001
969, 5220002, 5220003, 5230003, 5230002
970, 5220003, 5220004, 5230004, 5230003
971, 5220004, 5220005, 5230005, 5230004
972, 5220005, 5220006, 5230006, 5230005
973, 5220006, 5220007, 5230007, 5230006
974, 5220007, 5220008, 5230008, 5230007
975, 5220008, 5220009, 5230009, 5230008
976, 5220009, 5220010, 5230010, 5230009
977, 5220010, 5220011, 5230011, 5230010
978, 5220011, 5220012, 5230012, 5230011
979, 5220012, 5220013, 5230013, 5230012
980, 5220013, 5220014, 5230014, 5230013
981, 5220014, 5220015, 5230015, 5230014
982, 5220015, 5220016, 5230016, 5230015
983, 5220016, 5220017, 5230017, 5230016
984, 5220017, 5220018, 5230018, 5230017
985, 5220018, 5220019, 5230019, 5230018
986, 5220019, 5220020, 5230020, 5230019
987, 5220020, 5220021, 5230021, 5230020
988, 5220021, 5220022, 5230022, 5230021
989, 5220022, 5220023, 5230023, 5230022
990, 230001, 230002, 240002, 240001
991, 230002, 230003, 240003, 240002
992, 230003, 230004, 240004, 240003
993, 230004, 230005, 240005, 240004
994, 230005, 230006, 240006, 240005
995, 230006, 230007, 240007, 240006
996, 230007, 230008, 240008, 240007
997, 230008, 230009, 240009, 240008
998, 230009, 230010, 240010, 240009
999, 230010, 230011, 240011, 240010
1000, 230011, 230012, 240012, 240011
1001, 230012, 230013, 240013, 240012
1002, 230013, 230014, 240014, 240013
1003, 230014, 230015, 240015, 240014
1004, 230015, 230016, 240016, 240015
1005, 230016, 230017, 240017, 240016
1006, 230017, 230018, 240018, 240017
1007, 230018, 230019, 240019, 240018
1008, 230019, 230020, 240020, 240019
1009, 230020, 230021, 240021, 240020
1010, 5230000, 5230001, 5240001, 5240000
1011, 5230001, 5230002, 5240002, 5240001
1012, 5230002, 5230003, 5240003, 5240002
1013, 5230003, 5230004, 5240004, 5240003
1014, 5230004, 5230005, 5240005, 5240004
1015, 5230005, 5230006, 5240006, 5240005
1016, 5230006, 5230007, 5240007, 5240006
1017, 5230007, 5230008, 5240008, 5240007
1018, 5230008, 5230009, 5240009, 5240008
1019, 5230009, 5230010, 5240010, 5240009
1020, 5230010, 5230011, 5240011, 5240010
1021, 5230011, 5230012, 5240012, 5240011
1022, 5230012, 5230013, 5240013, 5240012
1023, 5230013, 5230014, 5240014, 5240013
1024, 5230014, 5230015, 5240015, 5240014
1025, 5230015, 5230016, 5240016, 5240015
1026, 5230016, 5230017, 5240017, 5240016
1027, 5230017, 5230018, 5240018, 5240017
1028, 5230018, 5230019, 5240019, 5240018
1029, 5230019, 5230020, 5240020, 5240019
1030, 5230020, 5230021, 5240021, 5240020
1031, 5230021, 5230022, 5240022, 5240021
1032, 5230022, 5230023, 5240023, 5240022
1033, 240001, 240002, 250002, 250001
1034, 240002, 240003, 250003, 250002
1035, 240003, 240004, 250004, 250003
1036, 240004, 240005, 250005, 250004
1037, 240005, 240006, 250006, 250005
1038, 240006, 240007, 250007, 250006
1039, 240007, 240008, 250008, 250007
1040, 240008, 240009, 250009, 250008
1041, 240009, 240010, 250010, 250009
1042, 240010, 240011, 250011, 250010
1043, 240011, 240012, 250012, 250011
1044, 240012, 240013, 250013, 250012
1045, 240013, 240014, 250014, 250013
1046, 240014, 240015, 250015, 250014
1047, 240015, 240016, 250016, 250015
1048, 240016, 240017, 250017, 250016
1049, 240017, 240018, 250018, 250017
1050, 240018, 240019, 250019, 250018
1051, 240019, 240020, 250020, 250019
1052, 240020, 240021, 250021, 250020
1053, 5240000, 5240001, 5250001, 5250000
1054, 5240001, 5240002, 5250002, 5250001
1055, 5240002, 5240003, 5250003, 5250002
1056, 5240003, 5240004, 5250004, 5250003
1057, 5240004, 5240005, 5250005, 5250004
1058, 5240005, 5240006, 5250006, 5250005
1059, 5240006, 5240007, 5250007, 5250006
1060, 5240007, 5240008, 5250008, 5250007
1061, 5240008, 5240009, 5250009, 5250008
1062, 5240009, 5240010, 5250010, 5250009
1063, 5240010, 5240011, 5250011, 5250010
1064, 5240011, 5240012, 5250012, 5250011
1065, 5240012, 5240013, 5250013, 5250012
1066, 5240013, 5240014, 5250014, 5250013
1067, 5240014, 5240015, 5250015, 5250014
1068, 5240015, 5240016, 5250016, 5250015
1069, 5240016, 5240017, 5250017, 5250016
1070, 5240017, 5240018, 5250018, 5250017
1071, 5240018, 5240019, 5250019, 5250018
1072, 5240019, 5240020, 5250020, 5250019
1073, 5240020, 5240021, 5250021, 5250020
1074, 5240021, 5240022, 5250022, 5250021
1075, 5240022, 5240023, 5250023, 5250022
1076, 250001, 250002, 260002, 260001
1077, 250002, 250003, 260003, 260002
1078, 250003, 250004, 260004, 260003
1079, 250004, 250005, 260005, 260004
1080, 250005, 250006, 260006, 260005
1081, 250006, 250007, 260007, 260006
1082, 250007, 250008, 260008, 260007
1083, 250008, 250009, 260009, 260008
1084, 250009, 250010, 260010, 260009
1085, 250010, 250011, 260011, 260010
1086, 250011, 250012, 260012, 260011
1087, 250012, 250013, 260013, 260012
1088, 250013, 250014, 260014, 260013
1089, 250014, 250015, 260015, 260014
1090, 250015, 250016, 260016, 260015
1091, 250016, 250017, 260017, 260016
1092, 250017, 250018, 260018, 260017
1093, 250018, 250019, 260019, 260018
1094, 250019, 250020, 260020, 260019
1095, 250020, 250021, 260021, 260020
1096, 5250000, 5250001, 5260001, 5260000
1097, 5250001, 5250002, 5260002, 5260001
1098, 5250002, 5250003, 5260003, 5260002
1099, 5250003, 5250004, 5260004, 5260003
1100, 5250004, 5250005, 5260005, 5260004
1101, 5250005, 5250006, 5260006, 5260005
1102, 5250006, 5250007, 5260007, 5260006
1103, 5250007, 5250008, 5260008, 5260007
1104, 5250008, 5250009, 5260009, 5260008
1105, 5250009, 5250010, 5260010, 5260009
1106, 5250010, 5250011, 5260011, 5260010
1107, 5250011, 5250012, 5260012, 5260011
1108, 5250012, 5250013, 5260013, 5260012
1109, 5250013, 5250014, 5260014, 5260013
1110, 5250014, 5250015, 5260015, 5260014
1111, 5250015, 5250016, 5260016, 5260015
1112, 5250016, 5250017, 5260017, 5260016
1113, 5250017, 5250018, 5260018, 5260017
1114, 5250018, 5250019, 5260019, 5260018
1115, 5250019, 5250020, 5260020, 5260019
1116, 5250020, 5250021, 5260021, 5260020
1117, 5250021, 5250022, 5260022, 5260021
1118, 5250022, 5250023, 5260023, 5260022
1119, 260001, 260002, 270002, 270001
1120, 260002, 260003, 270003, 270002
1121, 260003, 260004, 270004, 270003
1122, 260004, 260005, 270005, 270004
1123, 260005, 260006, 270006, 270005
1124, 260006, 260007, 270007, 270006
1125, 260007, 260008, 270008, 270007
1126, 260008, 260009, 270009, 270008
1127, 260009, 260010, 270010, 270009
1128, 260010, 260011, 270011, 270010
1129, 260011, 260012, 270012, 270011
1130, 260012, 260013, 270013, 270012
1131, 260013, 260014, 270014, 270013
1132, 260014, 260015, 270015, 270014
1133, 260015, 260016, 270016, 270015
1134, 260016, 260017, 270017, 270016
1135, 260017, 260018, 270018, 270017
1136, 260018, 260019, 270019, 270018
1137, 260019, 260020, 270020, 270019
1138, 260020, 260021, 270021, 270020
1139, 5260000, 5260001, 5270001, 5270000
1140, 5260001, 5260002, 5270002, 5270001
1141, 5260002, 5260003, 5270003, 5270002
1142, 5260003, 5260004, 5270004, 5270003
1143, 5260004, 5260005, 5270005, 5270004
1144, 5260005, 5260006, 5270006, 5270005
1145, 5260006, 5260007, 5270007, 5270006
1146, 5260007, 5260008, 5270008, 5270007
1147, 5260008, 5260009, 5270009, 5270008
1148, 5260009, 5260010, 5270010, 5270009
1149, 5260010, 5260011, 5270011, 5270010
1150, 5260011, 5260012, 5270012, 5270011
1151, 5260012, 5260013, 5270013, 5270012
1152, 5260013, 5260014, 5270014, 5270013
1153, 5260014, 5260015, 5270015, 5270014
1154, 5260015, 5260016, 5270016, 5270015
1155, 5260016, 5260017, 5270017, 5270016
1156, 5260017, 5260018, 5270018, 5270017
1157, 5260018, 5260019, 5270019, 5270018
1158, 5260019, 5260020, 5270020, 5270019
1159, 5260020, 5260021, 5270021, 5270020
1160, 5260021, 5260022, 5270022, 5270021
1161, 5260022, 5260023, 5270023, 5270022
1162, 270001, 270002, 280002, 280001
1163, 270002, 270003, 280003, 280002
1164, 270003, 270004, 280004, 280003
1165, 270004, 270005, 280005, 280004
1166, 270005, 270006, 280006, 280005
1167, 270006, 270007, 280007, 280006
1168, 270007, 270008, 280008, 280007
1169, 270008, 270009, 280009, 280008
1170, 270009, 270010, 280010, 280009
1171, 270010, 270011, 280011, 280010
1172, 270011, 270012, 280012, 280011
1173, 270012, 270013, 280013, 280012
1174, 270013, 270014, 280014, 280013
1175, 270014, 270015, 280015, 280014
1176, 270015, 270016, 280016, 280015
1177, 270016, 270017, 280017, 280016
1178, 270017, 270018, 280018, 280017
1179, 270018, 270019, 280019, 280018
1180, 270019, 270020, 280020, 280019
1181, 270020, 270021, 280021, 280020
1182, 5270000, 5270001, 5280001, 5280000
1183, 5270001, 5270002, 5280002, 5280001
1184, 5270002, 5270003, 5280003, 5280002
1185, 5270003, 5270004, 5280004, 5280003
1186, 5270004, 5270005, 5280005, 5280004
1187, 5270005, 5270006, 5280006, 5280005
1188, 5270006, 5270007, 5280007, 5280006
1189, 5270007, 5270008, 5280008, 5280007
1190, 5270008, 5270009, 5280009, 5280008
1191, 5270009, 5270010, 5280010, 5280009
1192, 5270010, 5270011, 5280011, 5280010
1193, 5270011, 5270012, 5280012, 5280011
1194, 5270012, 5270013, 5280013, 5280012
1195, 5270013, 5270014, 5280014, 5280013
1196, 5270014, 5270015, 5280015, 5280014
1197, 5270015, 5270016, 5280016, 5280015
1198, 5270016, 5270017, 5280017, 5280016
1199, 5270017, 5270018, 5280018, 5280017
1200, 5270018, 5270019, 5280019, 5280018
1201, 5270019, 5270020, 5280020, 5280019
1202, 5270020, 5270021, 5280021, 5280020
1203, 5270021, 5270022, 5280022, 5280021
1204, 5270022, 5270023, 5280023, 5280022
1205, 280001, 280002, 290002, 290001
1206, 280002, 280003, 290003, 290002
1207, 280003, 280004, 290004, 290003
1208, 280004, 280005, 290005, 290004
1209, 280005, 280006, 290006, 290005
1210, 280006, 280007, 290007, 290006
1211, 280007, 280008, 290008, 290007
1212, 280008, 280009, 290009, 290008
1213, 280009, 280010, 290010, 290009
1214, 280010, 280011, 290011, 290010
1215, 280011, 280012, 290012, 290011
1216, 280012, 280013, 290013, 290012
1217, 280013, 280014, 290014, 290013
1218, 280014, 280015, 290015, 290014
1219, 280015, 280016, 290016, 290015
1220, 280016, 280017, 290017, 290016
1221, 280017, 280018, 290018, 290017
1222, 280018, 280019, 290019, 290018
1223, 280019, 280020, 290020, 290019
1224, 280020, 280021, 290021, 290020
1225, 5280000, 5280001, 5290001, 5290000
1226, 5280001, 5280002, 5290002, 5290001
1227, 5280002, 5280003, 5290003, 5290002
1228, 5280003, 5280004, 5290004, 5290003
1229, 5280004, 5280005, 5290005, 5290004
1230, 5280005, 5280006, 5290006, 5290005
1231, 5280006, 5280007, 5290007, 5290006
1232, 5280007, 5280008, 5290008, 5290007
1233, 5280008, 5280009, 5290009, 5290008
1234, 5280009, 5280010, 5290010, 5290009
1235, 5280010, 5280011, 5290011, 5290010
1236, 5280011, 5280012, 5290012, 5290011
1237, 5280012, 5280013, 5290013, 5290012
1238, 5280013, 5280014, 5290014, 5290013
1239, 5280014, 5280015, 5290015, 5290014
1240, 5280015, 5280016, 5290016, 5290015
1241, 5280016, 5280017, 5290017, 5290016
1242, 5280017, 5280018, 5290018, 5290017
1243, 5280018, 5280019, 5290019, 5290018
1244, 5280019, 5280020, 5290020, 5290019
1245, 5280020, 5280021, 5290021, 5290020
1246, 5280021, 5280022, 5290022, 5290021
1247, 5280022, 5280023, 5290023, 5290022
1248, 290001, 290002, 300002, 300001
1249, 290002, 290003, 300003, 300002
1250, 290003, 290004, 300004, 300003
1251, 290004, 290005, 300005, 300004
1252, 290005, 290006, 300006, 300005
1253, 290006, 290007, 300007, 300006
1254, 290007, 290008, 300008, 300007
1255, 290008, 290009, 300009, 300008
1256, 290009, 290010, 300010, 300009
1257, 290010, 290011, 300011, 300010
1258, 290011, 290012, 300012, 300011
1259, 290012, 290013, 300013, 300012
1260, 290013, 290014, 300014, 300013
1261, 290014, 290015, 300015, 300014
1262, 290015, 290016, 300016, 300015
1263, 290016, 290017, 300017, 300016
1264, 290017, 290018, 300018, 300017
1265, 290018, 290019, 300019, 300018
1266, 290019, 290020, 300020, 300019
1267, 290020, 290021, 300021, 300020
1268, 5290000, 5290001, 5300001, 5300000
1269, 5290001, 5290002, 5300002, 5300001
1270, 5290002, 5290003, 5300003, 5300002
1271, 5290003, 5290004, 5300004, 5300003
1272, 5290004, 5290005, 5300005, 5300004
1273, 5290005, 5290006, 5300006, 5300005
1274, 5290006, 5290007, 5300007, 5300006
1275, 5290007, 5290008, 5300008, 5300007
1276, 5290008, 5290009, 5300009, 5300008
1277, 5290009, 5290010, 5300010, 5300009
1278, 5290010, 5290011, 5300011, 5300010
1279, 5290011, 5290012, 5300012, 5300011
1280, 5290012, 5290013, 5300013, 5300012
1281, 5290013, 5290014, 5300014, 5300013
1282, 5290014, 5290015, 5300015, 5300014
1283, 5290015, 5290016, 5300016, 5300015
1284, 5290016, 5290017, 5300017, 5300016
1285, 5290017, 5290018, 5300018, 5300017
1286, 5290018, 5290019, 5300019, 5300018
1287, 5290019, 5290020, 5300020, 5300019
1288, 5290020, 5290021, 5300021, 5300020
1289, 5290021, 5290022, 5300022, 5300021
1290, 5290022, 5290023, 5300023, 5300022
1291, 300001, 300002, 310002, 310001
1292, 300002, 300003, 310003, 310002
1293, 300003, 300004, 310004, 310003
1294, 300004, 300005, 310005, 310004
1295, 300005, 300006, 310006, 310005
1296, 300006, 300007, 310007, 310006
1297, 300007, 300008, 310008, 310007
1298, 300008, 300009, 310009, 310008
1299, 300009, 300010, 310010, 310009
1300, 300010, 300011, 310011, 310010
1301, 300011, 300012, 310012, 310011
1302, 300012, 300013, 310013, 310012
1303, 300013, 300014, 310014, 310013
1304, 300014, 300015, 310015, 310014
1305, 300015, 300016, 310016, 310015
1306, 300016, 300017, 310017, 310016
1307, 300017, 300018, 310018, 310017
1308, 300018, 300019, 310019, 310018
1309, 300019, 300020, 310020, 310019
1310, 300020, 300021, 310021, 310020
1311, 5300000, 5300001, 5310001, 5310000
1312, 5300001, 5300002, 5310002, 5310001
1313, 5300002, 5300003, 5310003, 5310002
1314, 5300003, 5300004, 5310004, 5310003
1315, 5300004, 5300005, 5310005, 5310004
1316, 5300005, 5300006, 5310006, 5310005
1317, 5300006, 5300007, 5310007, 5310006
1318, 5300007, 5300008, 5310008, 5310007
1319, 5300008, 5300009, 5310009, 5310008
1320, 5300009, 5300010, 5310010, 5310009
1321, 5300010, 5300011, 5310011, 5310010
1322, 5300011, 5300012, 5310012, 5310011
1323, 5300012, 5300013, 5310013, 5310012
1324, 5300013, 5300014, 5310014, 5310013
1325, 5300014, 5300015, 5310015, 5310014
1326, 5300015, 5300016, 5310016, 5310015
1327, 5300016, 5300017, 5310017, 5310016
1328, 5300017, 5300018, 5310018, 5310017
1329, 5300018, 5300019, 5310019, 5310018
1330, 5300019, 5300020, 5310020, 5310019
1331, 5300020, 5300021, 5310021, 5310020
1332, 5300021, 5300022, 5310022, 5310021
1333, 5300022, 5300023, 5310023, 5310022
1334, 310001, 310002, 320002, 320001
1335, 310002, 310003, 320003, 320002
1336, 310003, 310004, 320004, 320003
1337, 310004, 310005, 320005, 320004
1338, 310005, 310006, 320006, 320005
1339, 310006, 310007, 320007, 320006
1340, 310007, 310008, 320008, 320007
1341, 310008, 310009, 320009, 320008
1342, 310009, 310010, 320010, 320009
1343, 310010, 310011, 320011, 320010
1344, 310011, 310012, 320012, 320011
1345, 310012, 310013, 320013, 320012
1346, 310013, 310014, 320014, 320013
1347, 310014, 310015, 320015, 320014
1348, 310015, 310016, 320016, 320015
1349, 310016, 310017, 320017, 320016
1350, 310017, 310018, 320018, 320017
1351, 310018, 310019, 320019, 320018
1352, 310019, 310020, 320020, 320019
1353, 310020, 310021, 320021, 320020
1354, 5310000, 5310001, 5320001, 5320000
1355, 5310001, 5310002, 5320002, 5320001
1356, 5310002, 5310003, 5320003, 5320002
1357, 5310003, 5310004, 5320004, 5320003
1358, 5310004, 5310005, 5320005, 5320004
1359, 5310005, 5310006, 5320006, 5320005
1360, 5310006, 5310007, 5320007, 5320006
1361, 5310007, 5310008, 5320008, 5320007
1362, 5310008, 5310009, 5320009, 5320008
1363, 5310009, 5310010, 5320010, 5320009
1364, 5310010, 5310011, 5320011, 5320010
1365, 5310011, 5310012, 5320012, 5320011
1366, 5310012, 5310013, 5320013, 5320012
1367, 5310013, 5310014, 5320014, 5320013
1368, 5310014, 5310015, 5320015, 5320014
1369, 5310015, 5310016, 5320016, 5320015
1370, 5310016, 5310017, 5320017, 5320016
1371, 5310017, 5310018, 5320018, 5320017
1372, 5310018, 5310019, 5320019, 5320018
1373, 5310019, 5310020, 5320020, 5320019
1374, 5310020, 5310021, 5320021, 5320020
1375, 5310021, 5310022, 5320022, 5320021
1376, 5310022, 5310023, 5320023, 5320022
1377, 320001, 320002, 330002, 330001
1378, 320002, 320003, 330003, 330002
1379, 320003, 320004, 330004, 330003
1380, 320004, 320005, 330005, 330004
1381, 320005, 320006, 330006, 330005
1382, 320006, 320007, 330007, 330006
1383, 320007, 320008, 330008, 330007
1384, 320008, 320009, 330009, 330008
1385, 320009, 320010, 330010, 330009
1386, 320010, 320011, 330011, 330010
1387, 320011, 320012, 330012, 330011
1388, 320012, 320013, 330013, 330012
1389, 320013, 320014, 330014, 330013
1390, 320014, 320015, 330015, 330014
1391, 320015, 320016, 330016, 330015
1392, 320016, 320017, 330017, 330016
1393, 320017, 320018, 330018, 330017
1394, 320018, 320019, 330019, 330018
1395, 320019, 320020, 330020, 330019
1396, 320020, 320021, 330021, 330020
1397, 5320000, 5320001, 5330001, 5330000
1398, 5320001, 5320002, 5330002, 5330001
1399, 5320002, 5320003, 5330003, 5330002
1400, 5320003, 5320004, 5330004, 5330003
1401, 5320004, 5320005, 5330005, 5330004
1402, 5320005, 5320006, 5330006, 5330005
1403, 5320006, 5320007, 5330007, 5330006
1404, 5320007, 5320008, 5330008, 5330007
1405, 5320008, 5320009, 5330009, 5330008
1406, 5320009, 5320010, 5330010, 5330009
1407, 5320010, 5320011, 5330011, 5330010
1408, 5320011, 5320012, 5330012, 5330011
1409, 5320012, 5320013, 5330013, 5330012
1410, 5320013, 5320014, 5330014, 5330013
1411, 5320014, 5320015, 5330015, 5330014
1412, 5320015, 5320016, 5330016, 5330015
1413, 5320016, 5320017, 5330017, 5330016
1414, 5320017, 5320018, 5330018, 5330017
1415, 5320018, 5320019, 5330019, 5330018
1416, 5320019, 5320020, 5330020, 5330019
1417, 5320020, 5320021, 5330021, 5330020
1418, 5320021, 5320022, 5330022, 5330021
1419, 5320022, 5320023, 5330023, 5330022
1420, 330001, 330002, 340002, 340001
1421, 330002, 330003, 340003, 340002
1422, 330003, 330004, 340004, 340003
1423, 330004, 330005, 340005, 340004
1424, 330005, 330006, 340006, 340005
1425, 330006, 330007, 340007, 340006
1426, 330007, 330008, 340008, 340007
1427, 330008, 330009, 340009, 340008
1428, 330009, 330010, 340010, 340009
1429, 330010, 330011, 340011, 340010
1430, 330011, 330012, 340012, 340011
1431, 330012, 330013, 340013, 340012
1432, 330013, 330014, 340014, 340013
1433, 330014, 330015, 340015, 340014
1434, 330015, 330016, 340016, 340015
1435, 330016, 330017, 340017, 340016
1436, 330017, 330018, 340018, 340017
1437, 330018, 330019, 340019, 340018
1438, 330019, 330020, 340020, 340019
1439, 330020, 330021, 340021, 340020
1440, 5330000, 5330001, 5340001, 5340000
1441, 5330001, 5330002, 5340002, 5340001
1442, 5330002, 5330003, 5340003, 5340002
1443, 5330003, 5330004, 5340004, 5340003
1444, 5330004, 5330005, 5340005, 5340004
1445, 5330005, 5330006, 5340006, 5340005
1446, 5330006, 5330007, 5340007, 5340006
1447, 5330007, 5330008, 5340008, 5340007
1448, 5330008, 5330009, 5340009, 5340008
1449, 5330009, 5330010, 5340010, 5340009
1450, 5330010, 5330011, 5340011, 5340010
1451, 5330011, 5330012, 5340012, 5340011
1452, 5330012, 5330013, 5340013, 5340012
1453, 5330013, 5330014, 5340014, 5340013
1454, 5330014, 5330015, 5340015, 5340014
1455, 5330015, 5330016, 5340016, 5340015
1456, 5330016, 5330017, 5340017, 5340016
1457, 5330017, 5330018, 5340018, 5340017
1458, 5330018, 5330019, 5340019, 5340018
1459, 5330019, 5330020, 5340020, 5340019
1460, 5330020, 5330021, 5340021, 5340020
1461, 5330021, 5330022, 5340022, 5340021
1462, 5330022, 5330023, 5340023, 5340022
1463, 340001, 340002, 350002, 350001
1464, 340002, 340003, 350003, 350002
1465, 340003, 340004, 350004, 350003
1466, 340004, 340005, 350005, 350004
1467, 340005, 340006, 350006, 350005
1468, 340006, 340007, 350007, 350006
1469, 340007, 340008, 350008, 350007
1470, 340008, 340009, 350009, 350008
1471, 340009, 340010, 350010, 350009
1472, 340010, 340011, 350011, 350010
1473, 340011, 340012, 350012, 350011
1474, 340012, 340013, 350013, 350012
1475, 340013, 340014, 350014, 350013
1476, 340014, 340015, 350015, 350014
1477, 340015, 340016, 350016, 350015
1478, 340016, 340017, 350017, 350016
1479, 340017, 340018, 350018, 350017
1480, 340018, 340019, 350019, 350018
1481, 340019, 340020, 350020, 350019
1482, 340020, 340021, 350021, 350020
1483, 5340000, 5340001, 5350001, 5350000
1484, 5340001, 5340002, 5350002, 5350001
1485, 5340002, 5340003, 5350003, 5350002
1486, 5340003, 5340004, 5350004, 5350003
1487, 5340004, 5340005, 5350005, 5350004
1488, 5340005, 5340006, 5350006, 5350005
1489, 5340006, 5340007, 5350007, 5350006
1490, 5340007, 5340008, 5350008, 5350007
1491, 5340008, 5340009, 5350009, 5350008
1492, 5340009, 5340010, 5350010, 5350009
1493, 5340010, 5340011, 5350011, 5350010
1494, 5340011, 5340012, 5350012, 5350011
1495, 5340012, 5340013, 5350013, 5350012
1496, 5340013, 5340014, 5350014, 5350013
1497, 5340014, 5340015, 5350015, 5350014
1498, 5340015, 5340016, 5350016, 5350015
1499, 5340016, 5340017, 5350017, 5350016
1500, 5340017, 5340018, 5350018, 5350017
1501, 5340018, 5340019, 5350019, 5350018
1502, 5340019, 5340020, 5350020, 5350019
1503, 5340020, 5340021, 5350021, 5350020
1504, 5340021, 5340022, 5350022, 5350021
1505, 5340022, 5340023, 5350023, 5350022
1506, 350001, 350002, 360002, 360001
1507, 350002, 350003, 360003, 360002
1508, 350003, 350004, 360004, 360003
1509, 350004, 350005, 360005, 360004
1510, 350005, 350006, 360006, 360005
1511, 350006, 350007, 360007, 360006
1512, 350007, 350008, 360008, 360007
1513, 350008, 350009, 360009, 360008
1514, 350009, 350010, 360010, 360009
1515, 350010, 350011, 360011, 360010
1516, 350011, 350012, 360012, 360011
1517, 350012, 350013, 360013, 360012
1518, 350013, 350014, 360014, 360013
1519, 350014, 350015, 360015, 360014
1520, 350015, 350016, 360016, 360015
1521, 350016, 350017, 360017, 360016
1522, 350017, 350018, 360018, 360017
1523, 350018, 350019, 360019, 360018
1524, 350019, 350020, 360020, 360019
1525, 350020, 350021, 360021, 360020
1526, 5350000, 5350001, 5360001, 5360000
1527, 5350001, 5350002, 5360002, 5360001
1528, 5350002, 5350003, 5360003, 5360002
1529, 5350003, 5350004, 5360004, 5360003
1530, 5350004, 5350005, 5360005, 5360004
1531, 5350005, 5350006, 5360006, 5360005
1532, 5350006, 5350007, 5360007, 5360006
1533, 5350007, 5350008, 5360008, 5360007
1534, 5350008, 5350009, 5360009, 5360008
1535, 5350009, 5350010, 5360010, 5360009
1536, 5350010, 5350011, 5360011, 5360010
1537, 5350011, 5350012, 5360012, 5360011
1538, 5350012, 5350013, 5360013, 5360012
1539, 5350013, 5350014, 5360014, 5360013
1540, 5350014, 5350015, 5360015, 5360014
1541, 5350015, 5350016, 5360016, 5360015
1542, 5350016, 5350017, 5360017, 5360016
1543, 5350017, 5350018, 5360018, 5360017
1544, 5350018, 5350019, 5360019, 5360018
1545, 5350019, 5350020, 5360020, 5360019
1546, 5350020, 5350021, 5360021, 5360020
1547, 5350021, 5350022, 5360022, 5360021
1548, 5350022, 5350023, 5360023, 5360022
1549, 360001, 360002, 370002, 370001
1550, 360002, 360003, 370003, 370002
1551, 360003, 360004, 370004, 370003
1552, 360004, 360005, 370005, 370004
1553, 360005, 360006, 370006, 370005
1554, 360006, 360007, 370007, 370006
1555, 360007, 360008, 370008, 370007
1556, 360008, 360009, 370009, 370008
1557, 360009, 360010, 370010, 370009
1558, 360010, 360011, 370011, 370010
1559, 360011, 360012, 370012, 370011
1560, 360012, 360013, 370013, 370012
1561, 360013, 360014, 370014, 370013
1562, 360014, 360015, 370015, 370014
1563, 360015, 360016, 370016, 370015
1564, 360016, 360017, 370017, 370016
1565, 360017, 360018, 370018, 370017
1566, 360018, 360019, 370019, 370018
1567, 360019, 360020, 370020, 370019
1568, 360020, 360021, 370021, 370020
1569, 5360000, 5360001, 5370001, 5370000
1570, 5360001, 5360002, 5370002, 5370001
1571, 5360002, 5360003, 5370003, 5370002
1572, 5360003, 5360004, 5370004, 5370003
1573, 5360004, 5360005, 5370005, 5370004
1574, 5360005, 5360006, 5370006, 5370005
1575, 5360006, 5360007, 5370007, 5370006
1576, 5360007, 5360008, 5370008, 5370007
1577, 5360008, 5360009, 5370009, 5370008
1578, 5360009, 5360010, 5370010, 5370009
1579, 5360010, 5360011, 5370011, 5370010
1580, 5360011, 5360012, 5370012, 5370011
1581, 5360012, 5360013, 5370013, 5370012
1582, 5360013, 5360014, 5370014, 5370013
1583, 5360014, 5360015, 5370015, 5370014
1584, 5360015, 5360016, 5370016, 5370015
1585, 5360016, 5360017, 5370017, 5370016
1586, 5360017, 5360018, 5370018, 5370017
1587, 5360018, 5360019, 5370019, 5370018
1588, 5360019, 5360020, 5370020, 5370019
1589, 5360020, 5360021, 5370021, 5370020
1590, 5360021, 5360022, 5370022, 5370021
1591, 5360022, 5360023, 5370023, 5370022
1592, 370001, 370002, 380002, 380001
1593, 370002, 370003, 380003, 380002
1594, 370003, 370004, 380004, 380003
1595, 370004, 370005, 380005, 380004
1596, 370005, 370006, 380006, 380005
1597, 370006, 370007, 380007, 380006
1598, 370007, 370008, 380008, 380007
1599, 370008, 370009, 380009, 380008
1600, 370009, 370010, 380010, 380009
1601, 370010, 370011, 380011, 380010
1602, 370011, 370012, 380012, 380011
1603, 370012, 370013, 380013, 380012
1604, 370013, 370014, 380014, 380013
1605, 370014, 370015, 380015, 380014
1606, 370015, 370016, 380016, 380015
1607, 370016, 370017, 380017, 380016
1608, 370017, 370018, 380018, 380017
1609, 370018, 370019, 380019, 380018
1610, 370019, 370020, 380020, 380019
1611, 370020, 370021, 380021, 380020
1612, 5370000, 5370001, 5380001, 5380000
1613, 5370001, 5370002, 5380002, 5380001
1614, 5370002, 5370003, 5380003, 5380002
1615, 5370003, 5370004, 5380004, 5380003
1616, 5370004, 5370005, 5380005, 5380004
1617, 5370005, 5370006, 5380006, 5380005
1618, 5370006, 5370007, 5380007, 5380006
1619, 5370007, 5370008, 5380008, 5380007
1620, 5370008, 5370009, 5380009, 5380008
1621, 5370009, 5370010, 5380010, 5380009
1622, 5370010, 5370011, 5380011, 5380010
1623, 5370011, 5370012, 5380012, 5380011
1624, 5370012, 5370013, 5380013, 5380012
1625, 5370013, 5370014, 5380014, 5380013
1626, 5370014, 5370015, 5380015, 5380014
1627, 5370015, 5370016, 5380016, 5380015
1628, 5370016, 5370017, 5380017, 5380016
1629, 5370017, 5370018, 5380018, 5380017
1630, 5370018, 5370019, 5380019, 5380018
1631, 5370019, 5370020, 5380020, 5380019
1632, 5370020, 5370021, 5380021, 5380020
1633, 5370021, 5370022, 5380022, 5380021
1634, 5370022, 5370023, 5380023, 5380022
1635, 380001, 380002, 390002, 390001
1636, 380002, 380003, 390003, 390002
1637, 380003, 380004, 390004, 390003
1638, 380004, 380005, 390005, 390004
1639, 380005, 380006, 390006, 390005
1640, 380006, 380007, 390007, 390006
1641, 380007, 380008, 390008, 390007
1642, 380008, 380009, 390009, 390008
1643, 380009, 380010, 390010, 390009
1644, 380010, 380011, 390011, 390010
1645, 380011, 380012, 390012, 390011
1646, 380012, 380013, 390013, 390012
1647, 380013, 380014, 390014, 390013
1648, 380014, 380015, 390015, 390014
1649, 380015, 380016, 390016, 390015
1650, 380016, 380017, 390017, 390016
1651, 380017, 380018, 390018, 390017
1652, 380018, 380019, 390019, 390018
1653, 380019, 380020, 390020, 390019
1654, 380020, 380021, 390021, 390020
1655, 5380000, 5380001, 5390001, 5390000
1656, 5380001, 5380002, 5390002, 5390001
1657, 5380002, 5380003, 5390003, 5390002
1658, 5380003, 5380004, 5390004, 5390003
1659, 5380004, 5380005, 5390005, 5390004
1660, 5380005, 5380006, 5390006, 5390005
1661, 5380006, 5380007, 5390007, 5390006
1662, 5380007, 5380008, 5390008, 5390007
1663, 5380008, 5380009, 5390009, 5390008
1664, 5380009, 5380010, 5390010, 5390009
1665, 5380010, 5380011, 5390011, 5390010
1666, 5380011, 5380012, 5390012, 5390011
1667, 5380012, 5380013, 5390013, 5390012
1668, 5380013, 5380014, 5390014, 5390013
1669, 5380014, 5380015, 5390015, 5390014
1670, 5380015, 5380016, 5390016, 5390015
1671, 5380016, 5380017, 5390017, 5390016
1672, 5380017, 5380018, 5390018, 5390017
1673, 5380018, 5380019, 5390019, 5390018
1674, 5380019, 5380020, 5390020, 5390019
1675, 5380020, 5380021, 5390021, 5390020
1676, 5380021, 5380022, 5390022, 5390021
1677, 5380022, 5380023, 5390023, 5390022
1678, 390001, 390002, 400002, 400001
1679, 390002, 390003, 400003, 400002
1680, 390003, 390004, 400004, 400003
1681, 390004, 390005, 400005, 400004
1682, 390005, 390006, 400006, 400005
1683, 390006, 390007, 400007, 400006
1684, 390007, 390008, 400008, 400007
1685, 390008, 390009, 400009, 400008
1686, 390009, 390010, 400010, 400009
1687, 390010, 390011, 400011, 400010
1688, 390011, 390012, 400012, 400011
1689, 390012, 390013, 400013, 400012
1690, 390013, 390014, 400014, 400013
1691, 390014, 390015, 400015, 400014
1692, 390015, 390016, 400016, 400015
1693, 390016, 390017, 400017, 400016
1694, 390017, 390018, 400018, 400017
1695, 390018, 390019, 400019, 400018
1696, 390019, 390020, 400020, 400019
1697, 390020, 390021, 400021, 400020
1698, 5390000, 5390001, 5400001, 5400000
1699, 5390001, 5390002, 5400002, 5400001
1700, 5390002, 5390003, 5400003, 5400002
1701, 5390003, 5390004, 5400004, 5400003
1702, 5390004, 5390005, 5400005, 5400004
1703, 5390005, 5390006, 5400006, 5400005
1704, 5390006, 5390007, 5400007, 5400006
1705, 5390007, 5390008, 5400008, 5400007
1706, 5390008, 5390009, 5400009, 5400008
1707, 5390009, 5390010, 5400010, 5400009
1708, 5390010, 5390011, 5400011, 5400010
1709, 5390011, 5390012, 5400012, 5400011
1710, 5390012, 5390013, 5400013, 5400012
1711, 5390013, 5390014, 5400014, 5400013
1712, 5390014, 5390015, 5400015, 5400014
1713, 5390015, 5390016, 5400016, 5400015
1714, 5390016, 5390017, 5400017, 5400016
1715, 5390017, 5390018, 5400018, 5400017
1716, 5390018, 5390019, 5400019, 5400018
1717, 5390019, 5390020, 5400020, 5400019
1718, 5390020, 5390021, 5400021, 5400020
1719, 5390021, 5390022, 5400022, 5400021
1720, 5390022, 5390023, 5400023, 5400022
1721, 400001, 400002, 410002, 410001
1722, 400002, 400003, 410003, 410002
1723, 400003, 400004, 410004, 410003
1724, 400004, 400005, 410005, 410004
1725, 400005, 400006, 410006, 410005
1726, 400006, 400007, 410007, 410006
1727, 400007, 400008, 410008, 410007
1728, 400008, 400009, 410009, 410008
1729, 400009, 400010, 410010, 410009
1730, 400010, 400011, 410011, 410010
1731, 400011, 400012, 410012, 410011
1732, 400012, 400013, 410013, 410012
1733, 400013, 400014, 410014, 410013
1734, 400014, 400015, 410015, 410014
1735, 400015, 400016, 410016, 410015
1736, 400016, 400017, 410017, 410016
1737, 400017, 400018, 410018, 410017
1738, 400018, 400019, 410019, 410018
1739, 400019, 400020, 410020, 410019
1740, 400020, 400021, 410021, 410020
1741, 5400000, 5400001, 5410001, 5410000
1742, 5400001, 5400002, 5410002, 5410001
1743, 5400002, 5400003, 5410003, 5410002
1744, 5400003, 5400004, 5410004, 5410003
1745, 5400004, 5400005, 5410005, 5410004
1746, 5400005, 5400006, 5410006, 5410005
1747, 5400006, 5400007, 5410007, 5410006
1748, 5400007, 5400008, 5410008, 5410007
1749, 5400008, 5400009, 5410009, 5410008
1750, 5400009, 5400010, 5410010, 5410009
1751, 5400010, 5400011, 5410011, 5410010
1752, 5400011, 5400012, 5410012, 5410011
1753, 5400012, 5400013, 5410013, 5410012
1754, 5400013, 5400014, 5410014, 5410013
1755, 5400014, 5400015, 5410015, 5410014
1756, 5400015, 5400016, 5410016, 5410015
1757, 5400016, 5400017, 5410017, 5410016
1758, 5400017, 5400018, 5410018, 5410017
1759, 5400018, 5400019, 5410019, 5410018
1760, 5400019, 5400020, 5410020, 5410019
1761, 5400020, 5400021, 5410021, 5410020
1762, 5400021, 5400022, 5410022, 5410021
1763, 5400022, 5400023, 5410023, 5410022
1764, 410001, 410002, 420002, 420001
1765, 410002, 410003, 420003, 420002
1766, 410003, 410004, 420004, 420003
1767, 410004, 410005, 420005, 420004
1768, 410005, 410006, 420006, 420005
1769, 410006, 410007, 420007, 420006
1770, 410007, 410008, 420008, 420007
1771, 410008, 410009, 420009, 420008
1772, 410009, 410010, 420010, 420009
1773, 410010, 410011, 420011, 420010
1774, 410011, 410012, 420012, 420011
1775, 410012, 410013, 420013, 420012
1776, 410013, 410014, 420014, 420013
1777, 410014, 410015, 420015, 420014
1778, 410015, 410016, 420016, 420015
1779, 410016, 410017, 420017, 420016
1780, 410017, 410018, 420018, 420017
1781, 410018, 410019, 420019, 420018
1782, 410019, 410020, 420020, 420019
1783, 410020, 410021, 420021, 420020
1784, 5410000, 5410001, 5420001, 5420000
1785, 5410001, 5410002, 5420002, 5420001
1786, 5410002, 5410003, 5420003, 5420002
1787, 5410003, 5410004, 5420004, 5420003
1788, 5410004, 5410005, 5420005, 5420004
1789, 5410005, 5410006, 5420006, 5420005
1790, 5410006, 5410007, 5420007, 5420006
1791, 5410007, 5410008, 5420008, 5420007
1792, 5410008, 5410009, 5420009, 5420008
1793, 5410009, 5410010, 5420010, 5420009
1794, 5410010, 5410011, 5420011, 5420010
1795, 5410011, 5410012, 5420012, 5420011
1796, 5410012, 5410013, 5420013, 5420012
1797, 5410013, 5410014, 5420014, 5420013
1798, 5410014, 5410015, 5420015, 5420014
1799, 5410015, 5410016, 5420016, 5420015
1800, 5410016, 5410017, 5420017, 5420016
1801, 5410017, 5410018, 5420018, 5420017
1802, 5410018, 5410019, 5420019, 5420018
1803, 5410019, 5410020, 5420020, 5420019
1804, 5410020, 5410021, 5420021, 5420020
1805, 5410021, 5410022, 5420022, 5420021
1806, 5410022, 5410023, 5420023, 5420022
1807, 420001, 420002, 430002, 430001
1808, 420002, 420003, 430003, 430002
1809, 420003, 420004, 430004, 430003
1810, 420004, 420005, 430005, 430004
1811, 420005, 420006, 430006, 430005
1812, 420006, 420007, 430007, 430006
1813, 420007, 420008, 430008, 430007
1814, 420008, 420009, 430009, 430008
1815, 420009, 420010, 430010, 430009
1816, 420010, 420011, 430011, 430010
1817, 420011, 420012, 430012, 430011
1818, 420012, 420013, 430013, 430012
1819, 420013, 420014, 430014, 430013
1820, 420014, 420015, 430015, 430014
1821, 420015, 420016, 430016, 430015
1822, 420016, 420017, 430017, 430016
1823, 420017, 420018, 430018, 430017
1824, 420018, 420019, 430019, 430018
1825, 420019, 420020, 430020, 430019
1826, 420020, 420021, 430021, 430020
1827, 5420000, 5420001, 5430001, 5430000
1828, 5420001, 5420002, 5430002, 5430001
1829, 5420002, 5420003, 5430003, 5430002
1830, 5420003, 5420004, 5430004, 5430003
1831, 5420004, 5420005, 5430005, 5430004
1832, 5420005, 5420006, 5430006, 5430005
1833, 5420006, 5420007, 5430007, 5430006
1834, 5420007, 5420008, 5430008, 5430007
1835, 5420008, 5420009, 5430009, 5430008
1836, 5420009, 5420010, 5430010, 5430009
1837, 5420010, 5420011, 5430011, 5430010
1838, 5420011, 5420012, 5430012, 5430011
1839, 5420012, 5420013, 5430013, 5430012
1840, 5420013, 5420014, 5430014, 5430013
1841, 5420014, 5420015, 5430015, 5430014
1842, 5420015, 5420016, 5430016, 5430015
1843, 5420016, 5420017, 5430017, 5430016
1844, 5420017, 5420018, 5430018, 5430017
1845, 5420018, 5420019, 5430019, 5430018
1846, 5420019, 5420020, 5430020, 5430019
1847, 5420020, 5420021, 5430021, 5430020
1848, 5420021, 5420022, 5430022, 5430021
1849, 5420022, 5420023, 5430023, 5430022
1850, 430001, 430002, 440002, 440001
1851, 430002, 430003, 440003, 440002
1852, 430003, 430004, 440004, 440003
1853, 430004, 430005, 440005, 440004
1854, 430005, 430006, 440006, 440005
1855, 430006, 430007, 440007, 440006
1856, 430007, 430008, 440008, 440007
1857, 430008, 430009, 440009, 440008
1858, 430009, 430010, 440010, 440009
1859, 430010, 430011, 440011, 440010
1860, 430011, 430012, 440012, 440011
1861, 430012, 430013, 440013, 440012
1862, 430013, 430014, 440014, 440013
1863, 430014, 430015, 440015, 440014
1864, 430015, 430016, 440016, 440015
1865, 430016, 430017, 440017, 440016
1866, 430017, 430018, 440018, 440017
1867, 430018, 430019, 440019, 440018
1868, 430019, 430020, 440020, 440019
1869, 430020, 430021, 440021, 440020
1870, 5430000, 5430001, 5440001, 5440000
1871, 5430001, 5430002, 5440002, 5440001
1872, 5430002, 5430003, 5440003, 5440002
1873, 5430003, 5430004, 5440004, 5440003
1874, 5430004, 5430005, 5440005, 5440004
1875, 5430005, 5430006, 5440006, 5440005
1876, 5430006, 5430007, 5440007, 5440006
1877, 5430007, 5430008, 5440008, 5440007
1878, 5430008, 5430009, 5440009, 5440008
1879, 5430009, 5430010, 5440010, 5440009
1880, 5430010, 5430011, 5440011, 5440010
1881, 5430011, 5430012, 5440012, 5440011
1882, 5430012, 5430013, 5440013, 5440012
1883, 5430013, 5430014, 5440014, 5440013
1884, 5430014, 5430015, 5440015, 5440014
1885, 5430015, 5430016, 5440016, 5440015
1886, 5430016, 5430017, 5440017, 5440016
1887, 5430017, 5430018, 5440018, 5440017
1888, 5430018, 5430019, 5440019, 5440018
1889, 5430019, 5430020, 5440020, 5440019
1890, 5430020, 5430021, 5440021, 5440020
1891, 5430021, 5430022, 5440022, 5440021
1892, 5430022, 5430023, 5440023, 5440022
1893, 440001, 440002, 450002, 450001
1894, 440002, 440003, 450003, 450002
1895, 440003, 440004, 450004, 450003
1896, 440004, 440005, 450005, 450004
1897, 440005, 440006, 450006, 450005
1898, 440006, 440007, 450007, 450006
1899, 440007, 440008, 450008, 450007
1900, 440008, 440009, 450009, 450008
1901, 440009, 440010, 450010, 450009
1902, 440010, 440011, 450011, 450010
1903, 440011, 440012, 450012, 450011
1904, 440012, 440013, 450013, 450012
1905, 440013, 440014, 450014, 450013
1906, 440014, 440015, 450015, 450014
1907, 440015, 440016, 450016, 450015
1908, 440016, 440017, 450017, 450016
1909, 440017, 440018, 450018, 450017
1910, 440018, 440019, 450019, 450018
1911, 440019, 440020, 450020, 450019
1912, 440020, 440021, 450021, 450020
1913, 5440000, 5440001, 5450001, 5450000
1914, 5440001, 5440002, 5450002, 5450001
1915, 5440002, 5440003, 5450003, 5450002
1916, 5440003, 5440004, 5450004, 5450003
1917, 5440004, 5440005, 5450005, 5450004
1918, 5440005, 5440006, 5450006, 5450005
1919, 5440006, 5440007, 5450007, 5450006
1920, 5440007, 5440008, 5450008, 5450007
1921, 5440008, 5440009, 5450009, 5450008
1922, 5440009, 5440010, 5450010, 5450009
1923, 5440010, 5440011, 5450011, 5450010
1924, 5440011, 5440012, 5450012, 5450011
1925, 5440012, 5440013, 5450013, 5450012
1926, 5440013, 5440014, 5450014, 5450013
1927, 5440014, 5440015, 5450015, 5450014
1928, 5440015, 5440016, 5450016, 5450015
1929, 5440016, 5440017, 5450017, 5450016
1930, 5440017, 5440018, 5450018, 5450017
1931, 5440018, 5440019, 5450019, 5450018
1932, 5440019, 5440020, 5450020, 5450019
1933, 5440020, 5440021, 5450021, 5450020
1934, 5440021, 5440022, 5450022, 5450021
1935, 5440022, 5440023, 5450023, 5450022
1936, 450001, 450002, 460002, 460001
1937, 450002, 450003, 460003, 460002
1938, 450003, 450004, 460004, 460003
1939, 450004, 450005, 460005, 460004
1940, 450005, 450006, 460006, 460005
1941, 450006, 450007, 460007, 460006
1942, 450007, 450008, 460008, 460007
1943, 450008, 450009, 460009, 460008
1944, 450009, 450010, 460010, 460009
1945, 450010, 450011, 460011, 460010
1946, 450011, 450012, 460012, 460011
1947, 450012, 450013, 460013, 460012
1948, 450013, 450014, 460014, 460013
1949, 450014, 450015, 460015, 460014
1950, 450015, 450016, 460016, 460015
1951, 450016, 450017, 460017, 460016
1952, 450017, 450018, 460018, 460017
1953, 450018, 450019, 460019, 460018
1954, 450019, 450020, 460020, 460019
1955, 450020, 450021, 460021, 460020
1956, 5450000, 5450001, 5460001, 5460000
1957, 5450001, 5450002, 5460002, 5460001
1958, 5450002, 5450003, 5460003, 5460002
1959, 5450003, 5450004, 5460004, 5460003
1960, 5450004, 5450005, 5460005, 5460004
1961, 5450005, 5450006, 5460006, 5460005
1962, 5450006, 5450007, 5460007, 5460006
1963, 5450007, 5450008, 5460008, 5460007
1964, 5450008, 5450009, 5460009, 5460008
1965, 5450009, 5450010, 5460010, 5460009
1966, 5450010, 5450011, 5460011, 5460010
1967, 5450011, 5450012, 5460012, 5460011
1968, 5450012, 5450013, 5460013, 5460012
1969, 5450013, 5450014, 5460014, 5460013
1970, 5450014, 5450015, 5460015, 5460014
1971, 5450015, 5450016, 5460016, 5460015
1972, 5450016, 5450017, 5460017, 5460016
1973, 5450017, 5450018, 5460018, 5460017
1974, 5450018, 5450019, 5460019, 5460018
1975, 5450019, 5450020, 5460020, 5460019
1976, 5450020, 5450021, 5460021, 5460020
1977, 5450021, 5450022, 5460022, 5460021
1978, 5450022, 5450023, 5460023, 5460022
1979, 460001, 460002, 470002, 470001
1980, 460002, 460003, 470003, 470002
1981, 460003, 460004, 470004, 470003
1982, 460004, 460005, 470005, 470004
1983, 460005, 460006, 470006, 470005
1984, 460006, 460007, 470007, 470006
1985, 460007, 460008, 470008, 470007
1986, 460008, 460009, 470009, 470008
1987, 460009, 460010, 470010, 470009
1988, 460010, 460011, 470011, 470010
1989, 460011, 460012, 470012, 470011
1990, 460012, 460013, 470013, 470012
1991, 460013, 460014, 470014, 470013
1992, 460014, 460015, 470015, 470014
1993, 460015, 460016, 470016, 470015
1994, 460016, 460017, 470017, 470016
1995, 460017, 460018, 470018, 470017
1996, 460018, 460019, 470019, 470018
1997, 460019, 460020, 470020, 470019
1998, 460020, 460021, 470021, 470020
1999, 5460000, 5460001, 5470001, 5470000
2000, 5460001, 5460002, 5470002, 5470001
2001, 5460002, 5460003, 5470003, 5470002
2002, 5460003, 5460004, 5470004, 5470003
2003, 5460004, 5460005, 5470005, 5470004
2004, 5460005, 5460006, 5470006, 5470005
2005, 5460006, 5460007, 5470007, 5470006
2006, 5460007, 5460008, 5470008, 5470007
2007, 5460008, 5460009, 5470009, 5470008
2008, 5460009, 5460010, 5470010, 5470009
2009, 5460010, 5460011, 5470011, 5470010
2010, 5460011, 5460012, 5470012, 5470011
2011, 5460012, 5460013, 5470013, 5470012
2012, 5460013, 5460014, 5470014, 5470013
2013, 5460014, 5460015, 5470015, 5470014
2014, 5460015, 5460016, 5470016, 5470015
2015, 5460016, 5460017, 5470017, 5470016
2016, 5460017, 5460018, 5470018, 5470017
2017, 5460018, 5460019, 5470019, 5470018
2018, 5460019, 5460020, 5470020, 5470019
2019, 5460020, 5460021, 5470021, 5470020
2020, 5460021, 5460022, 5470022, 5470021
2021, 5460022, 5460023, 5470023, 5470022
2022, 470001, 470002, 480002, 480001
2023, 470002, 470003, 480003, 480002
2024, 470003, 470004, 480004, 480003
2025, 470004, 470005, 480005, 480004
2026, 470005, 470006, 480006, 480005
2027, 470006, 470007, 480007, 480006
2028, 470007, 470008, 480008, 480007
2029, 470008, 470009, 480009, 480008
2030, 470009, 470010, 480010, 480009
2031, 470010, 470011, 480011, 480010
2032, 470011, 470012, 480012, 480011
2033, 470012, 470013, 480013, 480012
2034, 470013, 470014, 480014, 480013
2035, 470014, 470015, 480015, 480014
2036, 470015, 470016, 480016, 480015
2037, 470016, 470017, 480017, 480016
2038, 470017, 470018, 480018, 480017
2039, 470018, 470019, 480019, 480018
2040, 470019, 470020, 480020, 480019
2041, 470020, 470021, 480021, 480020
2042, 5470000, 5470001, 5480001, 5480000
2043, 5470001, 5470002, 5480002, 5480001
2044, 5470002, 5470003, 5480003, 5480002
2045, 5470003, 5470004, 5480004, 5480003
2046, 5470004, 5470005, 5480005, 5480004
2047, 5470005, 5470006, 5480006, 5480005
2048, 5470006, 5470007, 5480007, 5480006
2049, 5470007, 5470008, 5480008, 5480007
2050, 5470008, 5470009, 5480009, 5480008
2051, 5470009, 5470010, 5480010, 5480009
2052, 5470010, 5470011, 5480011, 5480010
2053, 5470011, 5470012, 5480012, 5480011
2054, 5470012, 5470013, 5480013, 5480012
2055, 5470013, 5470014, 5480014, 5480013
2056, 5470014, 5470015, 5480015, 5480014
2057, 5470015, 5470016, 5480016, 5480015
2058, 5470016, 5470017, 5480017, 5480016
2059, 5470017, 5470018, 5480018, 5480017
2060, 5470018, 5470019, 5480019, 5480018
2061, 5470019, 5470020, 5480020, 5480019
2062, 5470020, 5470021, 5480021, 5480020
2063, 5470021, 5470022, 5480022, 5480021
2064, 5470022, 5470023, 5480023, 5480022
2065, 480001, 480002, 490002, 490001
2066, 480002, 480003, 490003, 490002
2067, 480003, 480004, 490004, 490003
2068, 480004, 480005, 490005, 490004
2069, 480005, 480006, 490006, 490005
2070, 480006, 480007, 490007, 490006
2071, 480007, 480008, 490008, 490007
2072, 480008, 480009, 490009, 490008
2073, 480009, 480010, 490010, 490009
2074, 480010, 480011, 490011, 490010
2075, 480011, 480012, 490012, 490011
2076, 480012, 480013, 490013, 490012
2077, 480013, 480014, 490014, 490013
2078, 480014, 480015, 490015, 490014
2079, 480015, 480016, 490016, 490015
2080, 480016, 480017, 490017, 490016
2081, 480017, 480018, 490018, 490017
2082, 480018, 480019, 490019, 490018
2083, 480019, 480020, 490020, 490019
2084, 480020, 480021, 490021, 490020
2085, 5480000, 5480001, 5490001, 5490000
2086, 5480001, 5480002, 5490002, 5490001
2087, 5480002, 5480003, 5490003, 5490002
2088, 5480003, 5480004, 5490004, 5490003
2089, 5480004, 5480005, 5490005, 5490004
2090, 5480005, 5480006, 5490006, 5490005
2091, 5480006, 5480007, 5490007, 5490006
2092, 5480007, 5480008, 5490008, 5490007
2093, 5480008, 5480009, 5490009, 5490008
2094, 5480009, 5480010, 5490010, 5490009
2095, 5480010, 5480011, 5490011, 5490010
2096, 5480011, 5480012, 5490012, 5490011
2097, 5480012, 5480013, 5490013, 5490012
2098, 5480013, 5480014, 5490014, 5490013
2099, 5480014, 5480015, 5490015, 5490014
2100, 5480015, 5480016, 5490016, 5490015
2101, 5480016, 5480017, 5490017, 5490016
2102, 5480017, 5480018, 5490018, 5490017
2103, 5480018, 5480019, 5490019, 5490018
2104, 5480019, 5480020, 5490020, 5490019
2105, 5480020, 5480021, 5490021, 5490020
2106, 5480021, 5480022, 5490022, 5490021
2107, 5480022, 5480023, 5490023, 5490022
*ELEMENT, TYPE=COHAX4
2108, 21, 10021, 5010000, 5000000
2109, 10021, 20021, 5020000, 5010000
2110, 20021, 30021, 5030000, 5020000
2111, 30021, 40021, 5040000, 5030000
2112, 40021, 50021, 5050000, 5040000
2113, 50021, 60021, 5060000, 5050000
2114, 60021, 70021, 5070000, 5060000
2115, 70021, 80021, 5080000, 5070000
2116, 80021, 90021, 5090000, 5080000
2117, 90021, 100021, 5100000, 5090000
2118, 100021, 110021, 5110000, 5100000
2119, 110021, 120021, 5120000, 5110000
2120, 120021, 130021, 5130000, 5120000
2121, 130021, 140021, 5140000, 5130000
2122, 140021, 150021, 5150000, 5140000
2123, 150021, 160021, 5160000, 5150000
2124, 160021, 170021, 5170000, 5160000
2125, 170021, 180021, 5180000, 5170000
2126, 180021, 190021, 5190000, 5180000
2127, 190021, 200021, 5200000, 5190000
2128, 200021, 210021, 5210000, 5200000
2129, 210021, 220021, 5220000, 5210000
2130, 220021, 230021, 5230000, 5220000
2131, 230021, 240021, 5240000, 5230000
2132, 240021, 250021, 5250000, 5240000
2133, 250021, 260021, 5260000, 5250000
2134, 260021, 270021, 5270000, 5260000
2135, 270021, 280021, 5280000, 5270000
2136, 280021, 290021, 5290000, 5280000
2137, 290021, 300021, 5300000, 5290000
2138, 300021, 310021, 5310000, 5300000
2139, 310021, 320021, 5320000, 5310000
2140, 320021, 330021, 5330000, 5320000
2141, 330021, 340021, 5340000, 5330000
2142, 340021, 350021, 5350000, 5340000
2143, 350021, 360021, 5360000, 5350000
2144, 360021, 370021, 5370000, 5360000
2145, 370021, 380021, 5380000, 5370000
2146, 380021, 390021, 5390000, 5380000
2147, 390021, 400021, 5400000, 5390000
2148, 400021, 410021, 5410000, 5400000
2149, 410021, 420021, 5420000, 5410000
2150, 420021, 430021, 5430000, 5420000
2151, 430021, 440021, 5440000, 5430000
2152, 440021, 450021, 5450000, 5440000
2153, 450021, 460021, 5460000, 5450000
2154, 460021, 470021, 5470000, 5460000
2155, 470021, 480021, 5480000, 5470000
2156, 480021, 490021, 5490000, 5480000
*ELSET, ELSET=EPIDERMIS
1678, 1679, 1680, 1681, 1682, 1683, 1684, 1685, 1686, 1687, 1688, 1689
1690, 1691, 1692, 1693, 1694, 1695, 1696, 1697, 1698, 1699, 1700, 1701
1702, 1703, 1704, 1705, 1706, 1707, 1708, 1709, 1710, 1711, 1712, 1713
1714, 1715, 1716, 1717, 1718, 1719, 1720, 1721, 1722, 1723, 1724, 1725
1726, 1727, 1728, 1729, 1730, 1731, 1732, 1733, 1734, 1735, 1736, 1737
1738, 1739, 1740, 1741, 1742, 1743, 1744, 1745, 1746, 1747, 1748, 1749
1750, 1751, 1752, 1753, 1754, 1755, 1756, 1757, 1758, 1759, 1760, 1761
1762, 1763, 1764, 1765, 1766, 1767, 1768, 1769, 1770, 1771, 1772, 1773
1774, 1775, 1776, 1777, 1778, 1779, 1780, 1781, 1782, 1783, 1784, 1785
1786, 1787, 1788, 1789, 1790, 1791, 1792, 1793, 1794, 1795, 1796, 1797
1798, 1799, 1800, 1801, 1802, 1803, 1804, 1805, 1806, 1807, 1808, 1809
1810, 1811, 1812, 1813, 1814, 1815, 1816, 1817, 1818, 1819, 1820, 1821
1822, 1823, 1824, 1825, 1826, 1827, 1828, 1829, 1830, 1831, 1832, 1833
1834, 1835, 1836, 1837, 1838, 1839, 1840, 1841, 1842, 1843, 1844, 1845
1846, 1847, 1848, 1849, 1850, 1851, 1852, 1853, 1854, 1855, 1856, 1857
1858, 1859, 1860, 1861, 1862, 1863, 1864, 1865, 1866, 1867, 1868, 1869
1870, 1871, 1872, 1873, 1874, 1875, 1876, 1877, 1878, 1879, 1880, 1881
1882, 1883, 1884, 1885, 1886, 1887, 1888, 1889, 1890, 1891, 1892, 1893
1894, 1895, 1896, 1897, 1898, 1899, 1900, 1901, 1902, 1903, 1904, 1905
1906, 1907, 1908, 1909, 1910, 1911, 1912, 1913, 1914, 1915, 1916, 1917
1918, 1919, 1920, 1921, 1922, 1923, 1924, 1925, 1926, 1927, 1928, 1929
1930, 1931, 1932, 1933, 1934, 1935, 1936, 1937, 1938, 1939, 1940, 1941
1942, 1943, 1944, 1945, 1946, 1947, 1948, 1949, 1950, 1951, 1952, 1953
1954, 1955, 1956, 1957, 1958, 1959, 1960, 1961, 1962, 1963, 1964, 1965
1966, 1967, 1968, 1969, 1970, 1971, 1972, 1973, 1974, 1975, 1976, 1977
1978, 1979, 1980, 1981, 1982, 1983, 1984, 1985, 1986, 1987, 1988, 1989
1990, 1991, 1992, 1993, 1994, 1995, 1996, 1997, 1998, 1999, 2000, 2001
2002, 2003, 2004, 2005, 2006, 2007, 2008, 2009, 2010, 2011, 2012, 2013
2014, 2015, 2016, 2017, 2018, 2019, 2020, 2021, 2022, 2023, 2024, 2025
2026, 2027, 2028, 2029, 2030, 2031, 2032, 2033, 2034, 2035, 2036, 2037
2038, 2039, 2040, 2041, 2042, 2043, 2044, 2045, 2046, 2047, 2048, 2049
2050, 2051, 2052, 2053, 2054, 2055, 2056, 2057, 2058, 2059, 2060, 2061
2062, 2063, 2064, 2065, 2066, 2067, 2068, 2069, 2070, 2071, 2072, 2073
2074, 2075, 2076, 2077, 2078, 2079, 2080, 2081, 2082, 2083, 2084, 2085
2086, 2087, 2088, 2089, 2090, 2091, 2092, 2093, 2094, 2095, 2096, 2097
2098, 2099, 2100, 2101, 2102, 2103, 2104, 2105, 2106, 2107
*ELSET, ELSET=DERMIS
1119, 1120, 1121, 1122, 1123, 1124, 1125, 1126, 1127, 1128, 1129, 1130
1131, 1132, 1133, 1134, 1135, 1136, 1137, 1138, 1139, 1140, 1141, 1142
1143, 1144, 1145, 1146, 1147, 1148, 1149, 1150, 1151, 1152, 1153, 1154
1155, 1156, 1157, 1158, 1159, 1160, 1161, 1162, 1163, 1164, 1165, 1166
1167, 1168, 1169, 1170, 1171, 1172, 1173, 1174, 1175, 1176, 1177, 1178
1179, 1180, 1181, 1182, 1183, 1184, 1185, 1186, 1187, 1188, 1189, 1190
1191, 1192, 1193, 1194, 1195, 1196, 1197, 1198, 1199, 1200, 1201, 1202
1203, 1204, 1205, 1206, 1207, 1208, 1209, 1210, 1211, 1212, 1213, 1214
1215, 1216, 1217, 1218, 1219, 1220, 1221, 1222, 1223, 1224, 1225, 1226
1227, 1228, 1229, 1230, 1231, 1232, 1233, 1234, 1235, 1236, 1237, 1238
1239, 1240, 1241, 1242, 1243, 1244, 1245, 1246, 1247, 1248, 1249, 1250
1251, 1252, 1253, 1254, 1255, 1256, 1257, 1258, 1259, 1260, 1261, 1262
1263, 1264, 1265, 1266, 1267, 1268, 1269, 1270, 1271, 1272, 1273, 1274
1275, 1276, 1277, 1278, 1279, 1280, 1281, 1282, 1283, 1284, 1285, 1286
1287, 1288, 1289, 1290, 1291, 1292, 1293, 1294, 1295, 1296, 1297, 1298
1299, 1300, 1301, 1302, 1303, 1304, 1305, 1306, 1307, 1308, 1309, 1310
1311, 1312, 1313, 1314, 1315, 1316, 1317, 1318, 1319, 1320, 1321, 1322
1323, 1324, 1325, 1326, 1327, 1328, 1329, 1330, 1331, 1332, 1333, 1334
1335, 1336, 1337, 1338, 1339, 1340, 1341, 1342, 1343, 1344, 1345, 1346
1347, 1348, 1349, 1350, 1351, 1352, 1353, 1354, 1355, 1356, 1357, 1358
1359, 1360, 1361, 1362, 1363, 1364, 1365, 1366, 1367, 1368, 1369, 1370
1371, 1372, 1373, 1374, 1375, 1376, 1377, 1378, 1379, 1380, 1381, 1382
1383, 1384, 1385, 1386, 1387, 1388, 1389, 1390, 1391, 1392, 1393, 1394
1395, 1396, 1397, 1398, 1399, 1400, 1401, 1402, 1403, 1404, 1405, 1406
1407, 1408, 1409, 1410, 1411, 1412, 1413, 1414, 1415, 1416, 1417, 1418
1419, 1420, 1421, 1422, 1423, 1424, 1425, 1426, 1427, 1428, 1429, 1430
1431, 1432, 1433, 1434, 1435, 1436, 1437, 1438, 1439, 1440, 1441, 1442
1443, 1444, 1445, 1446, 1447, 1448, 1449, 1450, 1451, 1452, 1453, 1454
1455, 1456, 1457, 1458, 1459, 1460, 1461, 1462, 1463, 1464, 1465, 1466
1467, 1468, 1469, 1470, 1471, 1472, 1473, 1474, 1475, 1476, 1477, 1478
1479, 1480, 1481, 1482, 1483, 1484, 1485, 1486, 1487, 1488, 1489, 1490
1491, 1492, 1493, 1494, 1495, 1496, 1497, 1498, 1499, 1500, 1501, 1502
1503, 1504, 1505, 1506, 1507, 1508, 1509, 1510, 1511, 1512, 1513, 1514
1515, 1516, 1517, 1518, 1519, 1520, 1521, 1522, 1523, 1524, 1525, 1526
1527, 1528, 1529, 1530, 1531, 1532, 1533, 1534, 1535, 1536, 1537, 1538
1539, 1540, 1541, 1542, 1543, 1544, 1545, 1546, 1547, 1548, 1549, 1550
1551, 1552, 1553, 1554, 1555, 1556, 1557, 1558, 1559, 1560, 1561, 1562
1563, 1564, 1565, 1566, 1567, 1568, 1569, 1570, 1571, 1572, 1573, 1574
1575, 1576, 1577, 1578, 1579, 1580, 1581, 1582, 1583, 1584, 1585, 1586
1587, 1588, 1589, 1590, 1591, 1592, 1593, 1594, 1595, 1596, 1597, 1598
1599, 1600, 1601, 1602, 1603, 1604, 1605, 1606, 1607, 1608, 1609, 1610
1611, 1612, 1613, 1614, 1615, 1616, 1617, 1618, 1619, 1620, 1621, 1622
1623, 1624, 1625, 1626, 1627, 1628, 1629, 1630, 1631, 1632, 1633, 1634
1635, 1636, 1637, 1638, 1639, 1640, 1641, 1642, 1643, 1644, 1645, 1646
1647, 1648, 1649, 1650, 1651, 1652, 1653, 1654, 1655, 1656, 1657, 1658
1659, 1660, 1661, 1662, 1663, 1664, 1665, 1666, 1667, 1668, 1669, 1670
1671, 1672, 1673, 1674, 1675, 1676, 1677
*ELSET, ELSET=HYPODERMIS
1, 2, 3, 4, 5, 6, 7, 8, 9, 10, 11, 12
13, 14, 15, 16, 17, 18, 19, 20, 21, 22, 23, 24
25, 26, 27, 28, 29, 30, 31, 32, 33, 34, 35, 36
37, 38, 39, 40, 41, 42, 43, 44, 45, 46, 47, 48
49, 50, 51, 52, 53, 54, 55, 56, 57, 58, 59, 60
61, 62, 63, 64, 65, 66, 67, 68, 69, 70, 71, 72
73, 74, 75, 76, 77, 78, 79, 80, 81, 82, 83, 84
85, 86, 87, 88, 89, 90, 91, 92, 93, 94, 95, 96
97, 98, 99, 100, 101, 102, 103, 104, 105, 106, 107, 108
109, 110, 111, 112, 113, 114, 115, 116, 117, 118, 119, 120
121, 122, 123, 124, 125, 126, 127, 128, 129, 130, 131, 132
133, 134, 135, 136, 137, 138, 139, 140, 141, 142, 143, 144
145, 146, 147, 148, 149, 150, 151, 152, 153, 154, 155, 156
157, 158, 159, 160, 161, 162, 163, 164, 165, 166, 167, 168
169, 170, 171, 172, 173, 174, 175, 176, 177, 178, 179, 180
181, 182, 183, 184, 185, 186, 187, 188, 189, 190, 191, 192
193, 194, 195, 196, 197, 198, 199, 200, 201, 202, 203, 204
205, 206, 207, 208, 209, 210, 211, 212, 213, 214, 215, 216
217, 218, 219, 220, 221, 222, 223, 224, 225, 226, 227, 228
229, 230, 231, 232, 233, 234, 235, 236, 237, 238, 239, 240
241, 242, 243, 244, 245, 246, 247, 248, 249, 250, 251, 252
253, 254, 255, 256, 257, 258, 259, 260, 261, 262, 263, 264
265, 266, 267, 268, 269, 270, 271, 272, 273, 274, 275, 276
277, 278, 279, 280, 281, 282, 283, 284, 285, 286, 287, 288
289, 290, 291, 292, 293, 294, 295, 296, 297, 298, 299, 300
301, 302, 303, 304, 305, 306, 307, 308, 309, 310, 311, 312
313, 314, 315, 316, 317, 318, 319, 320, 321, 322, 323, 324
325, 326, 327, 328, 329, 330, 331, 332, 333, 334, 335, 336
337, 338, 339, 340, 341, 342, 343, 344, 345, 346, 347, 348
349, 350, 351, 352, 353, 354, 355, 356, 357, 358, 359, 360
361, 362, 363, 364, 365, 366, 367, 368, 369, 370, 371, 372
373, 374, 375, 376, 377, 378, 379, 380, 381, 382, 383, 384
385, 386, 387, 388, 389, 390, 391, 392, 393, 394, 395, 396
397, 398, 399, 400, 401, 402, 403, 404, 405, 406, 407, 408
409, 410, 411, 412, 413, 414, 415, 416, 417, 418, 419, 420
421, 422, 423, 424, 425, 426, 427, 428, 429, 430, 431, 432
433, 434, 435, 436, 437, 438, 439, 440, 441, 442, 443, 444
445, 446, 447, 448, 449, 450, 451, 452, 453, 454, 455, 456
457, 458, 459, 460, 461, 462, 463, 464, 465, 466, 467, 468
469, 470, 471, 472, 473, 474, 475, 476, 477, 478, 479, 480
481, 482, 483, 484, 485, 486, 487, 488, 489, 490, 491, 492
493, 494, 495, 496, 497, 498, 499, 500, 501, 502, 503, 504
505, 506, 507, 508, 509, 510, 511, 512, 513, 514, 515, 516
517, 518, 519, 520, 521, 522, 523, 524, 525, 526, 527, 528
529, 530, 531, 532, 533, 534, 535, 536, 537, 538, 539, 540
541, 542, 543, 544, 545, 546, 547, 548, 549, 550, 551, 552
553, 554, 555, 556, 557, 558, 559, 560, 561, 562, 563, 564
565, 566, 567, 568, 569, 570, 571, 572, 573, 574, 575, 576
577, 578, 579, 580, 581, 582, 583, 584, 585, 586, 587, 588
589, 590, 591, 592, 593, 594, 595, 596, 597, 598, 599, 600
601, 602, 603, 604, 605, 606, 607, 608, 609, 610, 611, 612
613, 614, 615, 616, 617, 618, 619, 620, 621, 622, 623, 624
625, 626, 627, 628, 629, 630, 631, 632, 633, 634, 635, 636
637, 638, 639, 640, 641, 642, 643, 644, 645, 646, 647, 648
649, 650, 651, 652, 653, 654, 655, 656, 657, 658, 659, 660
661, 662, 663, 664, 665, 666, 667, 668, 669, 670, 671, 672
673, 674, 675, 676, 677, 678, 679, 680, 681, 682, 683, 684
685, 686, 687, 688, 689, 690, 691, 692, 693, 694, 695, 696
697, 698, 699, 700, 701, 702, 703, 704, 705, 706, 707, 708
709, 710, 711, 712, 713, 714, 715, 716, 717, 718, 719, 720
721, 722, 723, 724, 725, 726, 727, 728, 729, 730, 731, 732
733, 734, 735, 736, 737, 738, 739, 740, 741, 742, 743, 744
745, 746, 747, 748, 749, 750, 751, 752, 753, 754, 755, 756
757, 758, 759, 760, 761, 762, 763, 764, 765, 766, 767, 768
769, 770, 771, 772, 773, 774, 775, 776, 777, 778, 779, 780
781, 782, 783, 784, 785, 786, 787, 788, 789, 790, 791, 792
793, 794, 795, 796, 797, 798, 799, 800, 801, 802, 803, 804
805, 806, 807, 808, 809, 810, 811, 812, 813, 814, 815, 816
817, 818, 819, 820, 821, 822, 823, 824, 825, 826, 827, 828
829, 830, 831, 832, 833, 834, 835, 836, 837, 838, 839, 840
841, 842, 843, 844, 845, 846, 847, 848, 849, 850, 851, 852
853, 854, 855, 856, 857, 858, 859, 860, 861, 862, 863, 864
865, 866, 867, 868, 869, 870, 871, 872, 873, 874, 875, 876
877, 878, 879, 880, 881, 882, 883, 884, 885, 886, 887, 888
889, 890, 891, 892, 893, 894, 895, 896, 897, 898, 899, 900
901, 902, 903, 904, 905, 906, 907, 908, 909, 910, 911, 912
913, 914, 915, 916, 917, 918, 919, 920, 921, 922, 923, 924
925, 926, 927, 928, 929, 930, 931, 932, 933, 934, 935, 936
937, 938, 939, 940, 941, 942, 943, 944, 945, 946, 947, 948
949, 950, 951, 952, 953, 954, 955, 956, 957, 958, 959, 960
961, 962, 963, 964, 965, 966, 967, 968, 969, 970, 971, 972
973, 974, 975, 976, 977, 978, 979, 980, 981, 982, 983, 984
985, 986, 987, 988, 989, 990, 991, 992, 993, 994, 995, 996
997, 998, 999, 1000, 1001, 1002, 1003, 1004, 1005, 1006, 1007, 1008
1009, 1010, 1011, 1012, 1013, 1014, 1015, 1016, 1017, 1018, 1019, 1020
1021, 1022, 1023, 1024, 1025, 1026, 1027, 1028, 1029, 1030, 1031, 1032
1033, 1034, 1035, 1036, 1037, 1038, 1039, 1040, 1041, 1042, 1043, 1044
1045, 1046, 1047, 1048, 1049, 1050, 1051, 1052, 1053, 1054, 1055, 1056
1057, 1058, 1059, 1060, 1061, 1062, 1063, 1064, 1065, 1066, 1067, 1068
1069, 1070, 1071, 1072, 1073, 1074, 1075, 1076, 1077, 1078, 1079, 1080
1081, 1082, 1083, 1084, 1085, 1086, 1087, 1088, 1089, 1090, 1091, 1092
1093, 1094, 1095, 1096, 1097, 1098, 1099, 1100, 1101, 1102, 1103, 1104
1105, 1106, 1107, 1108, 1109, 1110, 1111, 1112, 1113, 1114, 1115, 1116
1117, 1118
*ELSET, ELSET=BULK
EPIDERMIS, DERMIS, HYPODERMIS
*ELSET, ELSET=COH, GENERATE
2108, 2156, 1
*SURFACE, TYPE=ELEMENT, NAME=SKIN_SURF
BULK,
*NSET, NSET=NBOT
1, 2, 3, 4, 5, 6, 7, 8, 9, 10, 11, 12
13, 14, 15, 16, 17, 18, 19, 20, 21, 5000000, 5000001, 5000002
5000003, 5000004, 5000005, 5000006, 5000007, 5000008, 5000009, 5000010, 5000011, 5000012, 5000013, 5000014
5000015, 5000016, 5000017, 5000018, 5000019, 5000020, 5000021, 5000022, 5000023
*NSET, NSET=NAXIS, GENERATE
1, 490001, 10000
*NSET, NSET=NRIGHT, GENERATE
5000023, 5490023, 10000
*NODE
9999, 0.0, 1530.0000
*NSET, NSET=NREF
9999,
*SURFACE, TYPE=SEGMENTS, NAME=NEEDLE, FILLET RADIUS=5.0
START, 100.0000, 3530.0000
LINE,  100.0000, 1930.0000
LINE,  0.0, 1530.0000
*RIGID BODY, ANALYTICAL SURFACE=NEEDLE, REF NODE=NREF
*MATERIAL, NAME=MAT_EPIDERMIS
*DENSITY
1.2e-15,
*USER MATERIAL, CONSTANTS=4
0.2, 0.05, 1.3, 1.7
*DEPVAR, DELETE=1
4
1, DELFLAG, deletion flag
2, LAMMAX, max principal stretch
3, DAMAGE, damage variable
4, JVOL, relative volume
*MATERIAL, NAME=MAT_DERMIS
*DENSITY
1.1e-15,
*USER MATERIAL, CONSTANTS=4
0.05, 0.5, 1.5, 2.2
*DEPVAR, DELETE=1
4
1, DELFLAG, deletion flag
2, LAMMAX, max principal stretch
3, DAMAGE, damage variable
4, JVOL, relative volume
*MATERIAL, NAME=MAT_HYPODERMIS
*DENSITY
1.1e-15,
*USER MATERIAL, CONSTANTS=4
0.01, 2.0, 1.6, 2.8
*DEPVAR, DELETE=1
4
1, DELFLAG, deletion flag
2, LAMMAX, max principal stretch
3, DAMAGE, damage variable
4, JVOL, relative volume
*SECTION CONTROLS, NAME=SKINCTRL, HOURGLASS=ENHANCED
*SOLID SECTION, ELSET=EPIDERMIS, MATERIAL=MAT_EPIDERMIS, CONTROLS=SKINCTRL
*SOLID SECTION, ELSET=DERMIS, MATERIAL=MAT_DERMIS, CONTROLS=SKINCTRL
*SOLID SECTION, ELSET=HYPODERMIS, MATERIAL=MAT_HYPODERMIS, CONTROLS=SKINCTRL
*MATERIAL, NAME=COHMAT
*DENSITY
1.1e-15,
*ELASTIC, TYPE=TRACTION
4, 4, 4
*DAMAGE INITIATION, CRITERION=MAXS
2, 2, 2
*DAMAGE EVOLUTION, TYPE=ENERGY
5,
*COHESIVE SECTION, ELSET=COH, MATERIAL=COHMAT, RESPONSE=TRACTION SEPARATION, THICKNESS=SPECIFIED
1,
*SURFACE INTERACTION, NAME=IPROP
*FRICTION
0.1,
*SURFACE BEHAVIOR, PRESSURE-OVERCLOSURE=HARD
*BOUNDARY
NBOT, 2, 2
NAXIS, 1, 1
NRIGHT, 1, 1
NREF, 1, 1
NREF, 6, 6
*AMPLITUDE, NAME=PUSH, DEFINITION=SMOOTH STEP
0.0, 0.0, 0.03, 1.0
*STEP, NAME=PUNCTURE
*DYNAMIC, EXPLICIT
, 0.03
*FIXED MASS SCALING, DT=2.0e-7, TYPE=BELOW MIN
*BOUNDARY, AMPLITUDE=PUSH
NREF, 2, 2, -800.0
*CONTACT
*CONTACT INCLUSIONS, ALL EXTERIOR
*CONTACT INCLUSIONS
NEEDLE, SKIN_SURF
*CONTACT PROPERTY ASSIGNMENT
 ,  , IPROP
*OUTPUT, FIELD, NUMBER INTERVAL=30
*ELEMENT OUTPUT, ELSET=BULK
S, LE, SDV, STATUS
*ELEMENT OUTPUT, ELSET=COH
SDEG, STATUS
*NODE OUTPUT
U, V
*OUTPUT, HISTORY, TIME INTERVAL=1.0e-4
*NODE OUTPUT, NSET=NREF
U2, V2, RF2
*ENERGY OUTPUT
ALLIE, ALLKE, ALLSE, ALLDMD, ALLWK
*END STEP
