*HEADING
[17] Paper-aligned (Yolai 2025): Ogden 2-layer skin, pure deletion
Units: mm, N, MPa, tonne, s ; von Mises + strain failure, no cohesive
*NODE
1, 0.000000, 0.000000
2, 0.008000, 0.000000
3, 0.016000, 0.000000
4, 0.024000, 0.000000
5, 0.032000, 0.000000
6, 0.040000, 0.000000
7, 0.048000, 0.000000
8, 0.056000, 0.000000
9, 0.064000, 0.000000
10, 0.072000, 0.000000
11, 0.080000, 0.000000
12, 0.088000, 0.000000
13, 0.096000, 0.000000
14, 0.104000, 0.000000
15, 0.112000, 0.000000
16, 0.120000, 0.000000
17, 0.128000, 0.000000
18, 0.136000, 0.000000
19, 0.144000, 0.000000
20, 0.152000, 0.000000
21, 0.160000, 0.000000
22, 0.168000, 0.000000
23, 0.176000, 0.000000
24, 0.184000, 0.000000
25, 0.192000, 0.000000
26, 0.200000, 0.000000
27, 0.208000, 0.000000
28, 0.216000, 0.000000
29, 0.224000, 0.000000
30, 0.232000, 0.000000
31, 0.240000, 0.000000
32, 0.248000, 0.000000
33, 0.257600, 0.000000
34, 0.269120, 0.000000
35, 0.282944, 0.000000
36, 0.299533, 0.000000
37, 0.319439, 0.000000
38, 0.343327, 0.000000
39, 0.371993, 0.000000
40, 0.406391, 0.000000
41, 0.447669, 0.000000
42, 0.497203, 0.000000
43, 0.556644, 0.000000
44, 0.627973, 0.000000
45, 0.713567, 0.000000
46, 0.816281, 0.000000
47, 0.939537, 0.000000
48, 1.087444, 0.000000
49, 1.264933, 0.000000
50, 1.477920, 0.000000
51, 1.733504, 0.000000
52, 2.000000, 0.000000
100001, 0.000000, 0.058127
100002, 0.008000, 0.058127
100003, 0.016000, 0.058127
100004, 0.024000, 0.058127
100005, 0.032000, 0.058127
100006, 0.040000, 0.058127
100007, 0.048000, 0.058127
100008, 0.056000, 0.058127
100009, 0.064000, 0.058127
100010, 0.072000, 0.058127
100011, 0.080000, 0.058127
100012, 0.088000, 0.058127
100013, 0.096000, 0.058127
100014, 0.104000, 0.058127
100015, 0.112000, 0.058127
100016, 0.120000, 0.058127
100017, 0.128000, 0.058127
100018, 0.136000, 0.058127
100019, 0.144000, 0.058127
100020, 0.152000, 0.058127
100021, 0.160000, 0.058127
100022, 0.168000, 0.058127
100023, 0.176000, 0.058127
100024, 0.184000, 0.058127
100025, 0.192000, 0.058127
100026, 0.200000, 0.058127
100027, 0.208000, 0.058127
100028, 0.216000, 0.058127
100029, 0.224000, 0.058127
100030, 0.232000, 0.058127
100031, 0.240000, 0.058127
100032, 0.248000, 0.058127
100033, 0.257600, 0.058127
100034, 0.269120, 0.058127
100035, 0.282944, 0.058127
100036, 0.299533, 0.058127
100037, 0.319439, 0.058127
100038, 0.343327, 0.058127
100039, 0.371993, 0.058127
100040, 0.406391, 0.058127
100041, 0.447669, 0.058127
100042, 0.497203, 0.058127
100043, 0.556644, 0.058127
100044, 0.627973, 0.058127
100045, 0.713567, 0.058127
100046, 0.816281, 0.058127
100047, 0.939537, 0.058127
100048, 1.087444, 0.058127
100049, 1.264933, 0.058127
100050, 1.477920, 0.058127
100051, 1.733504, 0.058127
100052, 2.000000, 0.058127
200001, 0.000000, 0.208127
200002, 0.008000, 0.208127
200003, 0.016000, 0.208127
200004, 0.024000, 0.208127
200005, 0.032000, 0.208127
200006, 0.040000, 0.208127
200007, 0.048000, 0.208127
200008, 0.056000, 0.208127
200009, 0.064000, 0.208127
200010, 0.072000, 0.208127
200011, 0.080000, 0.208127
200012, 0.088000, 0.208127
200013, 0.096000, 0.208127
200014, 0.104000, 0.208127
200015, 0.112000, 0.208127
200016, 0.120000, 0.208127
200017, 0.128000, 0.208127
200018, 0.136000, 0.208127
200019, 0.144000, 0.208127
200020, 0.152000, 0.208127
200021, 0.160000, 0.208127
200022, 0.168000, 0.208127
200023, 0.176000, 0.208127
200024, 0.184000, 0.208127
200025, 0.192000, 0.208127
200026, 0.200000, 0.208127
200027, 0.208000, 0.208127
200028, 0.216000, 0.208127
200029, 0.224000, 0.208127
200030, 0.232000, 0.208127
200031, 0.240000, 0.208127
200032, 0.248000, 0.208127
200033, 0.257600, 0.208127
200034, 0.269120, 0.208127
200035, 0.282944, 0.208127
200036, 0.299533, 0.208127
200037, 0.319439, 0.208127
200038, 0.343327, 0.208127
200039, 0.371993, 0.208127
200040, 0.406391, 0.208127
200041, 0.447669, 0.208127
200042, 0.497203, 0.208127
200043, 0.556644, 0.208127
200044, 0.627973, 0.208127
200045, 0.713567, 0.208127
200046, 0.816281, 0.208127
200047, 0.939537, 0.208127
200048, 1.087444, 0.208127
200049, 1.264933, 0.208127
200050, 1.477920, 0.208127
200051, 1.733504, 0.208127
200052, 2.000000, 0.208127
300001, 0.000000, 0.358127
300002, 0.008000, 0.358127
300003, 0.016000, 0.358127
300004, 0.024000, 0.358127
300005, 0.032000, 0.358127
300006, 0.040000, 0.358127
300007, 0.048000, 0.358127
300008, 0.056000, 0.358127
300009, 0.064000, 0.358127
300010, 0.072000, 0.358127
300011, 0.080000, 0.358127
300012, 0.088000, 0.358127
300013, 0.096000, 0.358127
300014, 0.104000, 0.358127
300015, 0.112000, 0.358127
300016, 0.120000, 0.358127
300017, 0.128000, 0.358127
300018, 0.136000, 0.358127
300019, 0.144000, 0.358127
300020, 0.152000, 0.358127
300021, 0.160000, 0.358127
300022, 0.168000, 0.358127
300023, 0.176000, 0.358127
300024, 0.184000, 0.358127
300025, 0.192000, 0.358127
300026, 0.200000, 0.358127
300027, 0.208000, 0.358127
300028, 0.216000, 0.358127
300029, 0.224000, 0.358127
300030, 0.232000, 0.358127
300031, 0.240000, 0.358127
300032, 0.248000, 0.358127
300033, 0.257600, 0.358127
300034, 0.269120, 0.358127
300035, 0.282944, 0.358127
300036, 0.299533, 0.358127
300037, 0.319439, 0.358127
300038, 0.343327, 0.358127
300039, 0.371993, 0.358127
300040, 0.406391, 0.358127
300041, 0.447669, 0.358127
300042, 0.497203, 0.358127
300043, 0.556644, 0.358127
300044, 0.627973, 0.358127
300045, 0.713567, 0.358127
300046, 0.816281, 0.358127
300047, 0.939537, 0.358127
300048, 1.087444, 0.358127
300049, 1.264933, 0.358127
300050, 1.477920, 0.358127
300051, 1.733504, 0.358127
300052, 2.000000, 0.358127
400001, 0.000000, 0.508127
400002, 0.008000, 0.508127
400003, 0.016000, 0.508127
400004, 0.024000, 0.508127
400005, 0.032000, 0.508127
400006, 0.040000, 0.508127
400007, 0.048000, 0.508127
400008, 0.056000, 0.508127
400009, 0.064000, 0.508127
400010, 0.072000, 0.508127
400011, 0.080000, 0.508127
400012, 0.088000, 0.508127
400013, 0.096000, 0.508127
400014, 0.104000, 0.508127
400015, 0.112000, 0.508127
400016, 0.120000, 0.508127
400017, 0.128000, 0.508127
400018, 0.136000, 0.508127
400019, 0.144000, 0.508127
400020, 0.152000, 0.508127
400021, 0.160000, 0.508127
400022, 0.168000, 0.508127
400023, 0.176000, 0.508127
400024, 0.184000, 0.508127
400025, 0.192000, 0.508127
400026, 0.200000, 0.508127
400027, 0.208000, 0.508127
400028, 0.216000, 0.508127
400029, 0.224000, 0.508127
400030, 0.232000, 0.508127
400031, 0.240000, 0.508127
400032, 0.248000, 0.508127
400033, 0.257600, 0.508127
400034, 0.269120, 0.508127
400035, 0.282944, 0.508127
400036, 0.299533, 0.508127
400037, 0.319439, 0.508127
400038, 0.343327, 0.508127
400039, 0.371993, 0.508127
400040, 0.406391, 0.508127
400041, 0.447669, 0.508127
400042, 0.497203, 0.508127
400043, 0.556644, 0.508127
400044, 0.627973, 0.508127
400045, 0.713567, 0.508127
400046, 0.816281, 0.508127
400047, 0.939537, 0.508127
400048, 1.087444, 0.508127
400049, 1.264933, 0.508127
400050, 1.477920, 0.508127
400051, 1.733504, 0.508127
400052, 2.000000, 0.508127
500001, 0.000000, 0.653879
500002, 0.008000, 0.653879
500003, 0.016000, 0.653879
500004, 0.024000, 0.653879
500005, 0.032000, 0.653879
500006, 0.040000, 0.653879
500007, 0.048000, 0.653879
500008, 0.056000, 0.653879
500009, 0.064000, 0.653879
500010, 0.072000, 0.653879
500011, 0.080000, 0.653879
500012, 0.088000, 0.653879
500013, 0.096000, 0.653879
500014, 0.104000, 0.653879
500015, 0.112000, 0.653879
500016, 0.120000, 0.653879
500017, 0.128000, 0.653879
500018, 0.136000, 0.653879
500019, 0.144000, 0.653879
500020, 0.152000, 0.653879
500021, 0.160000, 0.653879
500022, 0.168000, 0.653879
500023, 0.176000, 0.653879
500024, 0.184000, 0.653879
500025, 0.192000, 0.653879
500026, 0.200000, 0.653879
500027, 0.208000, 0.653879
500028, 0.216000, 0.653879
500029, 0.224000, 0.653879
500030, 0.232000, 0.653879
500031, 0.240000, 0.653879
500032, 0.248000, 0.653879
500033, 0.257600, 0.653879
500034, 0.269120, 0.653879
500035, 0.282944, 0.653879
500036, 0.299533, 0.653879
500037, 0.319439, 0.653879
500038, 0.343327, 0.653879
500039, 0.371993, 0.653879
500040, 0.406391, 0.653879
500041, 0.447669, 0.653879
500042, 0.497203, 0.653879
500043, 0.556644, 0.653879
500044, 0.627973, 0.653879
500045, 0.713567, 0.653879
500046, 0.816281, 0.653879
500047, 0.939537, 0.653879
500048, 1.087444, 0.653879
500049, 1.264933, 0.653879
500050, 1.477920, 0.653879
500051, 1.733504, 0.653879
500052, 2.000000, 0.653879
600001, 0.000000, 0.777398
600002, 0.008000, 0.777398
600003, 0.016000, 0.777398
600004, 0.024000, 0.777398
600005, 0.032000, 0.777398
600006, 0.040000, 0.777398
600007, 0.048000, 0.777398
600008, 0.056000, 0.777398
600009, 0.064000, 0.777398
600010, 0.072000, 0.777398
600011, 0.080000, 0.777398
600012, 0.088000, 0.777398
600013, 0.096000, 0.777398
600014, 0.104000, 0.777398
600015, 0.112000, 0.777398
600016, 0.120000, 0.777398
600017, 0.128000, 0.777398
600018, 0.136000, 0.777398
600019, 0.144000, 0.777398
600020, 0.152000, 0.777398
600021, 0.160000, 0.777398
600022, 0.168000, 0.777398
600023, 0.176000, 0.777398
600024, 0.184000, 0.777398
600025, 0.192000, 0.777398
600026, 0.200000, 0.777398
600027, 0.208000, 0.777398
600028, 0.216000, 0.777398
600029, 0.224000, 0.777398
600030, 0.232000, 0.777398
600031, 0.240000, 0.777398
600032, 0.248000, 0.777398
600033, 0.257600, 0.777398
600034, 0.269120, 0.777398
600035, 0.282944, 0.777398
600036, 0.299533, 0.777398
600037, 0.319439, 0.777398
600038, 0.343327, 0.777398
600039, 0.371993, 0.777398
600040, 0.406391, 0.777398
600041, 0.447669, 0.777398
600042, 0.497203, 0.777398
600043, 0.556644, 0.777398
600044, 0.627973, 0.777398
600045, 0.713567, 0.777398
600046, 0.816281, 0.777398
600047, 0.939537, 0.777398
600048, 1.087444, 0.777398
600049, 1.264933, 0.777398
600050, 1.477920, 0.777398
600051, 1.733504, 0.777398
600052, 2.000000, 0.777398
700001, 0.000000, 0.882074
700002, 0.008000, 0.882074
700003, 0.016000, 0.882074
700004, 0.024000, 0.882074
700005, 0.032000, 0.882074
700006, 0.040000, 0.882074
700007, 0.048000, 0.882074
700008, 0.056000, 0.882074
700009, 0.064000, 0.882074
700010, 0.072000, 0.882074
700011, 0.080000, 0.882074
700012, 0.088000, 0.882074
700013, 0.096000, 0.882074
700014, 0.104000, 0.882074
700015, 0.112000, 0.882074
700016, 0.120000, 0.882074
700017, 0.128000, 0.882074
700018, 0.136000, 0.882074
700019, 0.144000, 0.882074
700020, 0.152000, 0.882074
700021, 0.160000, 0.882074
700022, 0.168000, 0.882074
700023, 0.176000, 0.882074
700024, 0.184000, 0.882074
700025, 0.192000, 0.882074
700026, 0.200000, 0.882074
700027, 0.208000, 0.882074
700028, 0.216000, 0.882074
700029, 0.224000, 0.882074
700030, 0.232000, 0.882074
700031, 0.240000, 0.882074
700032, 0.248000, 0.882074
700033, 0.257600, 0.882074
700034, 0.269120, 0.882074
700035, 0.282944, 0.882074
700036, 0.299533, 0.882074
700037, 0.319439, 0.882074
700038, 0.343327, 0.882074
700039, 0.371993, 0.882074
700040, 0.406391, 0.882074
700041, 0.447669, 0.882074
700042, 0.497203, 0.882074
700043, 0.556644, 0.882074
700044, 0.627973, 0.882074
700045, 0.713567, 0.882074
700046, 0.816281, 0.882074
700047, 0.939537, 0.882074
700048, 1.087444, 0.882074
700049, 1.264933, 0.882074
700050, 1.477920, 0.882074
700051, 1.733504, 0.882074
700052, 2.000000, 0.882074
800001, 0.000000, 0.970784
800002, 0.008000, 0.970784
800003, 0.016000, 0.970784
800004, 0.024000, 0.970784
800005, 0.032000, 0.970784
800006, 0.040000, 0.970784
800007, 0.048000, 0.970784
800008, 0.056000, 0.970784
800009, 0.064000, 0.970784
800010, 0.072000, 0.970784
800011, 0.080000, 0.970784
800012, 0.088000, 0.970784
800013, 0.096000, 0.970784
800014, 0.104000, 0.970784
800015, 0.112000, 0.970784
800016, 0.120000, 0.970784
800017, 0.128000, 0.970784
800018, 0.136000, 0.970784
800019, 0.144000, 0.970784
800020, 0.152000, 0.970784
800021, 0.160000, 0.970784
800022, 0.168000, 0.970784
800023, 0.176000, 0.970784
800024, 0.184000, 0.970784
800025, 0.192000, 0.970784
800026, 0.200000, 0.970784
800027, 0.208000, 0.970784
800028, 0.216000, 0.970784
800029, 0.224000, 0.970784
800030, 0.232000, 0.970784
800031, 0.240000, 0.970784
800032, 0.248000, 0.970784
800033, 0.257600, 0.970784
800034, 0.269120, 0.970784
800035, 0.282944, 0.970784
800036, 0.299533, 0.970784
800037, 0.319439, 0.970784
800038, 0.343327, 0.970784
800039, 0.371993, 0.970784
800040, 0.406391, 0.970784
800041, 0.447669, 0.970784
800042, 0.497203, 0.970784
800043, 0.556644, 0.970784
800044, 0.627973, 0.970784
800045, 0.713567, 0.970784
800046, 0.816281, 0.970784
800047, 0.939537, 0.970784
800048, 1.087444, 0.970784
800049, 1.264933, 0.970784
800050, 1.477920, 0.970784
800051, 1.733504, 0.970784
800052, 2.000000, 0.970784
900001, 0.000000, 1.045961
900002, 0.008000, 1.045961
900003, 0.016000, 1.045961
900004, 0.024000, 1.045961
900005, 0.032000, 1.045961
900006, 0.040000, 1.045961
900007, 0.048000, 1.045961
900008, 0.056000, 1.045961
900009, 0.064000, 1.045961
900010, 0.072000, 1.045961
900011, 0.080000, 1.045961
900012, 0.088000, 1.045961
900013, 0.096000, 1.045961
900014, 0.104000, 1.045961
900015, 0.112000, 1.045961
900016, 0.120000, 1.045961
900017, 0.128000, 1.045961
900018, 0.136000, 1.045961
900019, 0.144000, 1.045961
900020, 0.152000, 1.045961
900021, 0.160000, 1.045961
900022, 0.168000, 1.045961
900023, 0.176000, 1.045961
900024, 0.184000, 1.045961
900025, 0.192000, 1.045961
900026, 0.200000, 1.045961
900027, 0.208000, 1.045961
900028, 0.216000, 1.045961
900029, 0.224000, 1.045961
900030, 0.232000, 1.045961
900031, 0.240000, 1.045961
900032, 0.248000, 1.045961
900033, 0.257600, 1.045961
900034, 0.269120, 1.045961
900035, 0.282944, 1.045961
900036, 0.299533, 1.045961
900037, 0.319439, 1.045961
900038, 0.343327, 1.045961
900039, 0.371993, 1.045961
900040, 0.406391, 1.045961
900041, 0.447669, 1.045961
900042, 0.497203, 1.045961
900043, 0.556644, 1.045961
900044, 0.627973, 1.045961
900045, 0.713567, 1.045961
900046, 0.816281, 1.045961
900047, 0.939537, 1.045961
900048, 1.087444, 1.045961
900049, 1.264933, 1.045961
900050, 1.477920, 1.045961
900051, 1.733504, 1.045961
900052, 2.000000, 1.045961
1000001, 0.000000, 1.109670
1000002, 0.008000, 1.109670
1000003, 0.016000, 1.109670
1000004, 0.024000, 1.109670
1000005, 0.032000, 1.109670
1000006, 0.040000, 1.109670
1000007, 0.048000, 1.109670
1000008, 0.056000, 1.109670
1000009, 0.064000, 1.109670
1000010, 0.072000, 1.109670
1000011, 0.080000, 1.109670
1000012, 0.088000, 1.109670
1000013, 0.096000, 1.109670
1000014, 0.104000, 1.109670
1000015, 0.112000, 1.109670
1000016, 0.120000, 1.109670
1000017, 0.128000, 1.109670
1000018, 0.136000, 1.109670
1000019, 0.144000, 1.109670
1000020, 0.152000, 1.109670
1000021, 0.160000, 1.109670
1000022, 0.168000, 1.109670
1000023, 0.176000, 1.109670
1000024, 0.184000, 1.109670
1000025, 0.192000, 1.109670
1000026, 0.200000, 1.109670
1000027, 0.208000, 1.109670
1000028, 0.216000, 1.109670
1000029, 0.224000, 1.109670
1000030, 0.232000, 1.109670
1000031, 0.240000, 1.109670
1000032, 0.248000, 1.109670
1000033, 0.257600, 1.109670
1000034, 0.269120, 1.109670
1000035, 0.282944, 1.109670
1000036, 0.299533, 1.109670
1000037, 0.319439, 1.109670
1000038, 0.343327, 1.109670
1000039, 0.371993, 1.109670
1000040, 0.406391, 1.109670
1000041, 0.447669, 1.109670
1000042, 0.497203, 1.109670
1000043, 0.556644, 1.109670
1000044, 0.627973, 1.109670
1000045, 0.713567, 1.109670
1000046, 0.816281, 1.109670
1000047, 0.939537, 1.109670
1000048, 1.087444, 1.109670
1000049, 1.264933, 1.109670
1000050, 1.477920, 1.109670
1000051, 1.733504, 1.109670
1000052, 2.000000, 1.109670
1100001, 0.000000, 1.163661
1100002, 0.008000, 1.163661
1100003, 0.016000, 1.163661
1100004, 0.024000, 1.163661
1100005, 0.032000, 1.163661
1100006, 0.040000, 1.163661
1100007, 0.048000, 1.163661
1100008, 0.056000, 1.163661
1100009, 0.064000, 1.163661
1100010, 0.072000, 1.163661
1100011, 0.080000, 1.163661
1100012, 0.088000, 1.163661
1100013, 0.096000, 1.163661
1100014, 0.104000, 1.163661
1100015, 0.112000, 1.163661
1100016, 0.120000, 1.163661
1100017, 0.128000, 1.163661
1100018, 0.136000, 1.163661
1100019, 0.144000, 1.163661
1100020, 0.152000, 1.163661
1100021, 0.160000, 1.163661
1100022, 0.168000, 1.163661
1100023, 0.176000, 1.163661
1100024, 0.184000, 1.163661
1100025, 0.192000, 1.163661
1100026, 0.200000, 1.163661
1100027, 0.208000, 1.163661
1100028, 0.216000, 1.163661
1100029, 0.224000, 1.163661
1100030, 0.232000, 1.163661
1100031, 0.240000, 1.163661
1100032, 0.248000, 1.163661
1100033, 0.257600, 1.163661
1100034, 0.269120, 1.163661
1100035, 0.282944, 1.163661
1100036, 0.299533, 1.163661
1100037, 0.319439, 1.163661
1100038, 0.343327, 1.163661
1100039, 0.371993, 1.163661
1100040, 0.406391, 1.163661
1100041, 0.447669, 1.163661
1100042, 0.497203, 1.163661
1100043, 0.556644, 1.163661
1100044, 0.627973, 1.163661
1100045, 0.713567, 1.163661
1100046, 0.816281, 1.163661
1100047, 0.939537, 1.163661
1100048, 1.087444, 1.163661
1100049, 1.264933, 1.163661
1100050, 1.477920, 1.163661
1100051, 1.733504, 1.163661
1100052, 2.000000, 1.163661
1200001, 0.000000, 1.209416
1200002, 0.008000, 1.209416
1200003, 0.016000, 1.209416
1200004, 0.024000, 1.209416
1200005, 0.032000, 1.209416
1200006, 0.040000, 1.209416
1200007, 0.048000, 1.209416
1200008, 0.056000, 1.209416
1200009, 0.064000, 1.209416
1200010, 0.072000, 1.209416
1200011, 0.080000, 1.209416
1200012, 0.088000, 1.209416
1200013, 0.096000, 1.209416
1200014, 0.104000, 1.209416
1200015, 0.112000, 1.209416
1200016, 0.120000, 1.209416
1200017, 0.128000, 1.209416
1200018, 0.136000, 1.209416
1200019, 0.144000, 1.209416
1200020, 0.152000, 1.209416
1200021, 0.160000, 1.209416
1200022, 0.168000, 1.209416
1200023, 0.176000, 1.209416
1200024, 0.184000, 1.209416
1200025, 0.192000, 1.209416
1200026, 0.200000, 1.209416
1200027, 0.208000, 1.209416
1200028, 0.216000, 1.209416
1200029, 0.224000, 1.209416
1200030, 0.232000, 1.209416
1200031, 0.240000, 1.209416
1200032, 0.248000, 1.209416
1200033, 0.257600, 1.209416
1200034, 0.269120, 1.209416
1200035, 0.282944, 1.209416
1200036, 0.299533, 1.209416
1200037, 0.319439, 1.209416
1200038, 0.343327, 1.209416
1200039, 0.371993, 1.209416
1200040, 0.406391, 1.209416
1200041, 0.447669, 1.209416
1200042, 0.497203, 1.209416
1200043, 0.556644, 1.209416
1200044, 0.627973, 1.209416
1200045, 0.713567, 1.209416
1200046, 0.816281, 1.209416
1200047, 0.939537, 1.209416
1200048, 1.087444, 1.209416
1200049, 1.264933, 1.209416
1200050, 1.477920, 1.209416
1200051, 1.733504, 1.209416
1200052, 2.000000, 1.209416
1300001, 0.000000, 1.248192
1300002, 0.008000, 1.248192
1300003, 0.016000, 1.248192
1300004, 0.024000, 1.248192
1300005, 0.032000, 1.248192
1300006, 0.040000, 1.248192
1300007, 0.048000, 1.248192
1300008, 0.056000, 1.248192
1300009, 0.064000, 1.248192
1300010, 0.072000, 1.248192
1300011, 0.080000, 1.248192
1300012, 0.088000, 1.248192
1300013, 0.096000, 1.248192
1300014, 0.104000, 1.248192
1300015, 0.112000, 1.248192
1300016, 0.120000, 1.248192
1300017, 0.128000, 1.248192
1300018, 0.136000, 1.248192
1300019, 0.144000, 1.248192
1300020, 0.152000, 1.248192
1300021, 0.160000, 1.248192
1300022, 0.168000, 1.248192
1300023, 0.176000, 1.248192
1300024, 0.184000, 1.248192
1300025, 0.192000, 1.248192
1300026, 0.200000, 1.248192
1300027, 0.208000, 1.248192
1300028, 0.216000, 1.248192
1300029, 0.224000, 1.248192
1300030, 0.232000, 1.248192
1300031, 0.240000, 1.248192
1300032, 0.248000, 1.248192
1300033, 0.257600, 1.248192
1300034, 0.269120, 1.248192
1300035, 0.282944, 1.248192
1300036, 0.299533, 1.248192
1300037, 0.319439, 1.248192
1300038, 0.343327, 1.248192
1300039, 0.371993, 1.248192
1300040, 0.406391, 1.248192
1300041, 0.447669, 1.248192
1300042, 0.497203, 1.248192
1300043, 0.556644, 1.248192
1300044, 0.627973, 1.248192
1300045, 0.713567, 1.248192
1300046, 0.816281, 1.248192
1300047, 0.939537, 1.248192
1300048, 1.087444, 1.248192
1300049, 1.264933, 1.248192
1300050, 1.477920, 1.248192
1300051, 1.733504, 1.248192
1300052, 2.000000, 1.248192
1400001, 0.000000, 1.281053
1400002, 0.008000, 1.281053
1400003, 0.016000, 1.281053
1400004, 0.024000, 1.281053
1400005, 0.032000, 1.281053
1400006, 0.040000, 1.281053
1400007, 0.048000, 1.281053
1400008, 0.056000, 1.281053
1400009, 0.064000, 1.281053
1400010, 0.072000, 1.281053
1400011, 0.080000, 1.281053
1400012, 0.088000, 1.281053
1400013, 0.096000, 1.281053
1400014, 0.104000, 1.281053
1400015, 0.112000, 1.281053
1400016, 0.120000, 1.281053
1400017, 0.128000, 1.281053
1400018, 0.136000, 1.281053
1400019, 0.144000, 1.281053
1400020, 0.152000, 1.281053
1400021, 0.160000, 1.281053
1400022, 0.168000, 1.281053
1400023, 0.176000, 1.281053
1400024, 0.184000, 1.281053
1400025, 0.192000, 1.281053
1400026, 0.200000, 1.281053
1400027, 0.208000, 1.281053
1400028, 0.216000, 1.281053
1400029, 0.224000, 1.281053
1400030, 0.232000, 1.281053
1400031, 0.240000, 1.281053
1400032, 0.248000, 1.281053
1400033, 0.257600, 1.281053
1400034, 0.269120, 1.281053
1400035, 0.282944, 1.281053
1400036, 0.299533, 1.281053
1400037, 0.319439, 1.281053
1400038, 0.343327, 1.281053
1400039, 0.371993, 1.281053
1400040, 0.406391, 1.281053
1400041, 0.447669, 1.281053
1400042, 0.497203, 1.281053
1400043, 0.556644, 1.281053
1400044, 0.627973, 1.281053
1400045, 0.713567, 1.281053
1400046, 0.816281, 1.281053
1400047, 0.939537, 1.281053
1400048, 1.087444, 1.281053
1400049, 1.264933, 1.281053
1400050, 1.477920, 1.281053
1400051, 1.733504, 1.281053
1400052, 2.000000, 1.281053
1500001, 0.000000, 1.308901
1500002, 0.008000, 1.308901
1500003, 0.016000, 1.308901
1500004, 0.024000, 1.308901
1500005, 0.032000, 1.308901
1500006, 0.040000, 1.308901
1500007, 0.048000, 1.308901
1500008, 0.056000, 1.308901
1500009, 0.064000, 1.308901
1500010, 0.072000, 1.308901
1500011, 0.080000, 1.308901
1500012, 0.088000, 1.308901
1500013, 0.096000, 1.308901
1500014, 0.104000, 1.308901
1500015, 0.112000, 1.308901
1500016, 0.120000, 1.308901
1500017, 0.128000, 1.308901
1500018, 0.136000, 1.308901
1500019, 0.144000, 1.308901
1500020, 0.152000, 1.308901
1500021, 0.160000, 1.308901
1500022, 0.168000, 1.308901
1500023, 0.176000, 1.308901
1500024, 0.184000, 1.308901
1500025, 0.192000, 1.308901
1500026, 0.200000, 1.308901
1500027, 0.208000, 1.308901
1500028, 0.216000, 1.308901
1500029, 0.224000, 1.308901
1500030, 0.232000, 1.308901
1500031, 0.240000, 1.308901
1500032, 0.248000, 1.308901
1500033, 0.257600, 1.308901
1500034, 0.269120, 1.308901
1500035, 0.282944, 1.308901
1500036, 0.299533, 1.308901
1500037, 0.319439, 1.308901
1500038, 0.343327, 1.308901
1500039, 0.371993, 1.308901
1500040, 0.406391, 1.308901
1500041, 0.447669, 1.308901
1500042, 0.497203, 1.308901
1500043, 0.556644, 1.308901
1500044, 0.627973, 1.308901
1500045, 0.713567, 1.308901
1500046, 0.816281, 1.308901
1500047, 0.939537, 1.308901
1500048, 1.087444, 1.308901
1500049, 1.264933, 1.308901
1500050, 1.477920, 1.308901
1500051, 1.733504, 1.308901
1500052, 2.000000, 1.308901
1600001, 0.000000, 1.332501
1600002, 0.008000, 1.332501
1600003, 0.016000, 1.332501
1600004, 0.024000, 1.332501
1600005, 0.032000, 1.332501
1600006, 0.040000, 1.332501
1600007, 0.048000, 1.332501
1600008, 0.056000, 1.332501
1600009, 0.064000, 1.332501
1600010, 0.072000, 1.332501
1600011, 0.080000, 1.332501
1600012, 0.088000, 1.332501
1600013, 0.096000, 1.332501
1600014, 0.104000, 1.332501
1600015, 0.112000, 1.332501
1600016, 0.120000, 1.332501
1600017, 0.128000, 1.332501
1600018, 0.136000, 1.332501
1600019, 0.144000, 1.332501
1600020, 0.152000, 1.332501
1600021, 0.160000, 1.332501
1600022, 0.168000, 1.332501
1600023, 0.176000, 1.332501
1600024, 0.184000, 1.332501
1600025, 0.192000, 1.332501
1600026, 0.200000, 1.332501
1600027, 0.208000, 1.332501
1600028, 0.216000, 1.332501
1600029, 0.224000, 1.332501
1600030, 0.232000, 1.332501
1600031, 0.240000, 1.332501
1600032, 0.248000, 1.332501
1600033, 0.257600, 1.332501
1600034, 0.269120, 1.332501
1600035, 0.282944, 1.332501
1600036, 0.299533, 1.332501
1600037, 0.319439, 1.332501
1600038, 0.343327, 1.332501
1600039, 0.371993, 1.332501
1600040, 0.406391, 1.332501
1600041, 0.447669, 1.332501
1600042, 0.497203, 1.332501
1600043, 0.556644, 1.332501
1600044, 0.627973, 1.332501
1600045, 0.713567, 1.332501
1600046, 0.816281, 1.332501
1600047, 0.939537, 1.332501
1600048, 1.087444, 1.332501
1600049, 1.264933, 1.332501
1600050, 1.477920, 1.332501
1600051, 1.733504, 1.332501
1600052, 2.000000, 1.332501
1700001, 0.000000, 1.350000
1700002, 0.008000, 1.350000
1700003, 0.016000, 1.350000
1700004, 0.024000, 1.350000
1700005, 0.032000, 1.350000
1700006, 0.040000, 1.350000
1700007, 0.048000, 1.350000
1700008, 0.056000, 1.350000
1700009, 0.064000, 1.350000
1700010, 0.072000, 1.350000
1700011, 0.080000, 1.350000
1700012, 0.088000, 1.350000
1700013, 0.096000, 1.350000
1700014, 0.104000, 1.350000
1700015, 0.112000, 1.350000
1700016, 0.120000, 1.350000
1700017, 0.128000, 1.350000
1700018, 0.136000, 1.350000
1700019, 0.144000, 1.350000
1700020, 0.152000, 1.350000
1700021, 0.160000, 1.350000
1700022, 0.168000, 1.350000
1700023, 0.176000, 1.350000
1700024, 0.184000, 1.350000
1700025, 0.192000, 1.350000
1700026, 0.200000, 1.350000
1700027, 0.208000, 1.350000
1700028, 0.216000, 1.350000
1700029, 0.224000, 1.350000
1700030, 0.232000, 1.350000
1700031, 0.240000, 1.350000
1700032, 0.248000, 1.350000
1700033, 0.257600, 1.350000
1700034, 0.269120, 1.350000
1700035, 0.282944, 1.350000
1700036, 0.299533, 1.350000
1700037, 0.319439, 1.350000
1700038, 0.343327, 1.350000
1700039, 0.371993, 1.350000
1700040, 0.406391, 1.350000
1700041, 0.447669, 1.350000
1700042, 0.497203, 1.350000
1700043, 0.556644, 1.350000
1700044, 0.627973, 1.350000
1700045, 0.713567, 1.350000
1700046, 0.816281, 1.350000
1700047, 0.939537, 1.350000
1700048, 1.087444, 1.350000
1700049, 1.264933, 1.350000
1700050, 1.477920, 1.350000
1700051, 1.733504, 1.350000
1700052, 2.000000, 1.350000
1800001, 0.000000, 1.352501
1800002, 0.008000, 1.352501
1800003, 0.016000, 1.352501
1800004, 0.024000, 1.352501
1800005, 0.032000, 1.352501
1800006, 0.040000, 1.352501
1800007, 0.048000, 1.352501
1800008, 0.056000, 1.352501
1800009, 0.064000, 1.352501
1800010, 0.072000, 1.352501
1800011, 0.080000, 1.352501
1800012, 0.088000, 1.352501
1800013, 0.096000, 1.352501
1800014, 0.104000, 1.352501
1800015, 0.112000, 1.352501
1800016, 0.120000, 1.352501
1800017, 0.128000, 1.352501
1800018, 0.136000, 1.352501
1800019, 0.144000, 1.352501
1800020, 0.152000, 1.352501
1800021, 0.160000, 1.352501
1800022, 0.168000, 1.352501
1800023, 0.176000, 1.352501
1800024, 0.184000, 1.352501
1800025, 0.192000, 1.352501
1800026, 0.200000, 1.352501
1800027, 0.208000, 1.352501
1800028, 0.216000, 1.352501
1800029, 0.224000, 1.352501
1800030, 0.232000, 1.352501
1800031, 0.240000, 1.352501
1800032, 0.248000, 1.352501
1800033, 0.257600, 1.352501
1800034, 0.269120, 1.352501
1800035, 0.282944, 1.352501
1800036, 0.299533, 1.352501
1800037, 0.319439, 1.352501
1800038, 0.343327, 1.352501
1800039, 0.371993, 1.352501
1800040, 0.406391, 1.352501
1800041, 0.447669, 1.352501
1800042, 0.497203, 1.352501
1800043, 0.556644, 1.352501
1800044, 0.627973, 1.352501
1800045, 0.713567, 1.352501
1800046, 0.816281, 1.352501
1800047, 0.939537, 1.352501
1800048, 1.087444, 1.352501
1800049, 1.264933, 1.352501
1800050, 1.477920, 1.352501
1800051, 1.733504, 1.352501
1800052, 2.000000, 1.352501
1900001, 0.000000, 1.372501
1900002, 0.008000, 1.372501
1900003, 0.016000, 1.372501
1900004, 0.024000, 1.372501
1900005, 0.032000, 1.372501
1900006, 0.040000, 1.372501
1900007, 0.048000, 1.372501
1900008, 0.056000, 1.372501
1900009, 0.064000, 1.372501
1900010, 0.072000, 1.372501
1900011, 0.080000, 1.372501
1900012, 0.088000, 1.372501
1900013, 0.096000, 1.372501
1900014, 0.104000, 1.372501
1900015, 0.112000, 1.372501
1900016, 0.120000, 1.372501
1900017, 0.128000, 1.372501
1900018, 0.136000, 1.372501
1900019, 0.144000, 1.372501
1900020, 0.152000, 1.372501
1900021, 0.160000, 1.372501
1900022, 0.168000, 1.372501
1900023, 0.176000, 1.372501
1900024, 0.184000, 1.372501
1900025, 0.192000, 1.372501
1900026, 0.200000, 1.372501
1900027, 0.208000, 1.372501
1900028, 0.216000, 1.372501
1900029, 0.224000, 1.372501
1900030, 0.232000, 1.372501
1900031, 0.240000, 1.372501
1900032, 0.248000, 1.372501
1900033, 0.257600, 1.372501
1900034, 0.269120, 1.372501
1900035, 0.282944, 1.372501
1900036, 0.299533, 1.372501
1900037, 0.319439, 1.372501
1900038, 0.343327, 1.372501
1900039, 0.371993, 1.372501
1900040, 0.406391, 1.372501
1900041, 0.447669, 1.372501
1900042, 0.497203, 1.372501
1900043, 0.556644, 1.372501
1900044, 0.627973, 1.372501
1900045, 0.713567, 1.372501
1900046, 0.816281, 1.372501
1900047, 0.939537, 1.372501
1900048, 1.087444, 1.372501
1900049, 1.264933, 1.372501
1900050, 1.477920, 1.372501
1900051, 1.733504, 1.372501
1900052, 2.000000, 1.372501
2000001, 0.000000, 1.392501
2000002, 0.008000, 1.392501
2000003, 0.016000, 1.392501
2000004, 0.024000, 1.392501
2000005, 0.032000, 1.392501
2000006, 0.040000, 1.392501
2000007, 0.048000, 1.392501
2000008, 0.056000, 1.392501
2000009, 0.064000, 1.392501
2000010, 0.072000, 1.392501
2000011, 0.080000, 1.392501
2000012, 0.088000, 1.392501
2000013, 0.096000, 1.392501
2000014, 0.104000, 1.392501
2000015, 0.112000, 1.392501
2000016, 0.120000, 1.392501
2000017, 0.128000, 1.392501
2000018, 0.136000, 1.392501
2000019, 0.144000, 1.392501
2000020, 0.152000, 1.392501
2000021, 0.160000, 1.392501
2000022, 0.168000, 1.392501
2000023, 0.176000, 1.392501
2000024, 0.184000, 1.392501
2000025, 0.192000, 1.392501
2000026, 0.200000, 1.392501
2000027, 0.208000, 1.392501
2000028, 0.216000, 1.392501
2000029, 0.224000, 1.392501
2000030, 0.232000, 1.392501
2000031, 0.240000, 1.392501
2000032, 0.248000, 1.392501
2000033, 0.257600, 1.392501
2000034, 0.269120, 1.392501
2000035, 0.282944, 1.392501
2000036, 0.299533, 1.392501
2000037, 0.319439, 1.392501
2000038, 0.343327, 1.392501
2000039, 0.371993, 1.392501
2000040, 0.406391, 1.392501
2000041, 0.447669, 1.392501
2000042, 0.497203, 1.392501
2000043, 0.556644, 1.392501
2000044, 0.627973, 1.392501
2000045, 0.713567, 1.392501
2000046, 0.816281, 1.392501
2000047, 0.939537, 1.392501
2000048, 1.087444, 1.392501
2000049, 1.264933, 1.392501
2000050, 1.477920, 1.392501
2000051, 1.733504, 1.392501
2000052, 2.000000, 1.392501
2100001, 0.000000, 1.412501
2100002, 0.008000, 1.412501
2100003, 0.016000, 1.412501
2100004, 0.024000, 1.412501
2100005, 0.032000, 1.412501
2100006, 0.040000, 1.412501
2100007, 0.048000, 1.412501
2100008, 0.056000, 1.412501
2100009, 0.064000, 1.412501
2100010, 0.072000, 1.412501
2100011, 0.080000, 1.412501
2100012, 0.088000, 1.412501
2100013, 0.096000, 1.412501
2100014, 0.104000, 1.412501
2100015, 0.112000, 1.412501
2100016, 0.120000, 1.412501
2100017, 0.128000, 1.412501
2100018, 0.136000, 1.412501
2100019, 0.144000, 1.412501
2100020, 0.152000, 1.412501
2100021, 0.160000, 1.412501
2100022, 0.168000, 1.412501
2100023, 0.176000, 1.412501
2100024, 0.184000, 1.412501
2100025, 0.192000, 1.412501
2100026, 0.200000, 1.412501
2100027, 0.208000, 1.412501
2100028, 0.216000, 1.412501
2100029, 0.224000, 1.412501
2100030, 0.232000, 1.412501
2100031, 0.240000, 1.412501
2100032, 0.248000, 1.412501
2100033, 0.257600, 1.412501
2100034, 0.269120, 1.412501
2100035, 0.282944, 1.412501
2100036, 0.299533, 1.412501
2100037, 0.319439, 1.412501
2100038, 0.343327, 1.412501
2100039, 0.371993, 1.412501
2100040, 0.406391, 1.412501
2100041, 0.447669, 1.412501
2100042, 0.497203, 1.412501
2100043, 0.556644, 1.412501
2100044, 0.627973, 1.412501
2100045, 0.713567, 1.412501
2100046, 0.816281, 1.412501
2100047, 0.939537, 1.412501
2100048, 1.087444, 1.412501
2100049, 1.264933, 1.412501
2100050, 1.477920, 1.412501
2100051, 1.733504, 1.412501
2100052, 2.000000, 1.412501
2200001, 0.000000, 1.432501
2200002, 0.008000, 1.432501
2200003, 0.016000, 1.432501
2200004, 0.024000, 1.432501
2200005, 0.032000, 1.432501
2200006, 0.040000, 1.432501
2200007, 0.048000, 1.432501
2200008, 0.056000, 1.432501
2200009, 0.064000, 1.432501
2200010, 0.072000, 1.432501
2200011, 0.080000, 1.432501
2200012, 0.088000, 1.432501
2200013, 0.096000, 1.432501
2200014, 0.104000, 1.432501
2200015, 0.112000, 1.432501
2200016, 0.120000, 1.432501
2200017, 0.128000, 1.432501
2200018, 0.136000, 1.432501
2200019, 0.144000, 1.432501
2200020, 0.152000, 1.432501
2200021, 0.160000, 1.432501
2200022, 0.168000, 1.432501
2200023, 0.176000, 1.432501
2200024, 0.184000, 1.432501
2200025, 0.192000, 1.432501
2200026, 0.200000, 1.432501
2200027, 0.208000, 1.432501
2200028, 0.216000, 1.432501
2200029, 0.224000, 1.432501
2200030, 0.232000, 1.432501
2200031, 0.240000, 1.432501
2200032, 0.248000, 1.432501
2200033, 0.257600, 1.432501
2200034, 0.269120, 1.432501
2200035, 0.282944, 1.432501
2200036, 0.299533, 1.432501
2200037, 0.319439, 1.432501
2200038, 0.343327, 1.432501
2200039, 0.371993, 1.432501
2200040, 0.406391, 1.432501
2200041, 0.447669, 1.432501
2200042, 0.497203, 1.432501
2200043, 0.556644, 1.432501
2200044, 0.627973, 1.432501
2200045, 0.713567, 1.432501
2200046, 0.816281, 1.432501
2200047, 0.939537, 1.432501
2200048, 1.087444, 1.432501
2200049, 1.264933, 1.432501
2200050, 1.477920, 1.432501
2200051, 1.733504, 1.432501
2200052, 2.000000, 1.432501
2300001, 0.000000, 1.452501
2300002, 0.008000, 1.452501
2300003, 0.016000, 1.452501
2300004, 0.024000, 1.452501
2300005, 0.032000, 1.452501
2300006, 0.040000, 1.452501
2300007, 0.048000, 1.452501
2300008, 0.056000, 1.452501
2300009, 0.064000, 1.452501
2300010, 0.072000, 1.452501
2300011, 0.080000, 1.452501
2300012, 0.088000, 1.452501
2300013, 0.096000, 1.452501
2300014, 0.104000, 1.452501
2300015, 0.112000, 1.452501
2300016, 0.120000, 1.452501
2300017, 0.128000, 1.452501
2300018, 0.136000, 1.452501
2300019, 0.144000, 1.452501
2300020, 0.152000, 1.452501
2300021, 0.160000, 1.452501
2300022, 0.168000, 1.452501
2300023, 0.176000, 1.452501
2300024, 0.184000, 1.452501
2300025, 0.192000, 1.452501
2300026, 0.200000, 1.452501
2300027, 0.208000, 1.452501
2300028, 0.216000, 1.452501
2300029, 0.224000, 1.452501
2300030, 0.232000, 1.452501
2300031, 0.240000, 1.452501
2300032, 0.248000, 1.452501
2300033, 0.257600, 1.452501
2300034, 0.269120, 1.452501
2300035, 0.282944, 1.452501
2300036, 0.299533, 1.452501
2300037, 0.319439, 1.452501
2300038, 0.343327, 1.452501
2300039, 0.371993, 1.452501
2300040, 0.406391, 1.452501
2300041, 0.447669, 1.452501
2300042, 0.497203, 1.452501
2300043, 0.556644, 1.452501
2300044, 0.627973, 1.452501
2300045, 0.713567, 1.452501
2300046, 0.816281, 1.452501
2300047, 0.939537, 1.452501
2300048, 1.087444, 1.452501
2300049, 1.264933, 1.452501
2300050, 1.477920, 1.452501
2300051, 1.733504, 1.452501
2300052, 2.000000, 1.452501
2400001, 0.000000, 1.472501
2400002, 0.008000, 1.472501
2400003, 0.016000, 1.472501
2400004, 0.024000, 1.472501
2400005, 0.032000, 1.472501
2400006, 0.040000, 1.472501
2400007, 0.048000, 1.472501
2400008, 0.056000, 1.472501
2400009, 0.064000, 1.472501
2400010, 0.072000, 1.472501
2400011, 0.080000, 1.472501
2400012, 0.088000, 1.472501
2400013, 0.096000, 1.472501
2400014, 0.104000, 1.472501
2400015, 0.112000, 1.472501
2400016, 0.120000, 1.472501
2400017, 0.128000, 1.472501
2400018, 0.136000, 1.472501
2400019, 0.144000, 1.472501
2400020, 0.152000, 1.472501
2400021, 0.160000, 1.472501
2400022, 0.168000, 1.472501
2400023, 0.176000, 1.472501
2400024, 0.184000, 1.472501
2400025, 0.192000, 1.472501
2400026, 0.200000, 1.472501
2400027, 0.208000, 1.472501
2400028, 0.216000, 1.472501
2400029, 0.224000, 1.472501
2400030, 0.232000, 1.472501
2400031, 0.240000, 1.472501
2400032, 0.248000, 1.472501
2400033, 0.257600, 1.472501
2400034, 0.269120, 1.472501
2400035, 0.282944, 1.472501
2400036, 0.299533, 1.472501
2400037, 0.319439, 1.472501
2400038, 0.343327, 1.472501
2400039, 0.371993, 1.472501
2400040, 0.406391, 1.472501
2400041, 0.447669, 1.472501
2400042, 0.497203, 1.472501
2400043, 0.556644, 1.472501
2400044, 0.627973, 1.472501
2400045, 0.713567, 1.472501
2400046, 0.816281, 1.472501
2400047, 0.939537, 1.472501
2400048, 1.087444, 1.472501
2400049, 1.264933, 1.472501
2400050, 1.477920, 1.472501
2400051, 1.733504, 1.472501
2400052, 2.000000, 1.472501
2500001, 0.000000, 1.492501
2500002, 0.008000, 1.492501
2500003, 0.016000, 1.492501
2500004, 0.024000, 1.492501
2500005, 0.032000, 1.492501
2500006, 0.040000, 1.492501
2500007, 0.048000, 1.492501
2500008, 0.056000, 1.492501
2500009, 0.064000, 1.492501
2500010, 0.072000, 1.492501
2500011, 0.080000, 1.492501
2500012, 0.088000, 1.492501
2500013, 0.096000, 1.492501
2500014, 0.104000, 1.492501
2500015, 0.112000, 1.492501
2500016, 0.120000, 1.492501
2500017, 0.128000, 1.492501
2500018, 0.136000, 1.492501
2500019, 0.144000, 1.492501
2500020, 0.152000, 1.492501
2500021, 0.160000, 1.492501
2500022, 0.168000, 1.492501
2500023, 0.176000, 1.492501
2500024, 0.184000, 1.492501
2500025, 0.192000, 1.492501
2500026, 0.200000, 1.492501
2500027, 0.208000, 1.492501
2500028, 0.216000, 1.492501
2500029, 0.224000, 1.492501
2500030, 0.232000, 1.492501
2500031, 0.240000, 1.492501
2500032, 0.248000, 1.492501
2500033, 0.257600, 1.492501
2500034, 0.269120, 1.492501
2500035, 0.282944, 1.492501
2500036, 0.299533, 1.492501
2500037, 0.319439, 1.492501
2500038, 0.343327, 1.492501
2500039, 0.371993, 1.492501
2500040, 0.406391, 1.492501
2500041, 0.447669, 1.492501
2500042, 0.497203, 1.492501
2500043, 0.556644, 1.492501
2500044, 0.627973, 1.492501
2500045, 0.713567, 1.492501
2500046, 0.816281, 1.492501
2500047, 0.939537, 1.492501
2500048, 1.087444, 1.492501
2500049, 1.264933, 1.492501
2500050, 1.477920, 1.492501
2500051, 1.733504, 1.492501
2500052, 2.000000, 1.492501
2600001, 0.000000, 1.512501
2600002, 0.008000, 1.512501
2600003, 0.016000, 1.512501
2600004, 0.024000, 1.512501
2600005, 0.032000, 1.512501
2600006, 0.040000, 1.512501
2600007, 0.048000, 1.512501
2600008, 0.056000, 1.512501
2600009, 0.064000, 1.512501
2600010, 0.072000, 1.512501
2600011, 0.080000, 1.512501
2600012, 0.088000, 1.512501
2600013, 0.096000, 1.512501
2600014, 0.104000, 1.512501
2600015, 0.112000, 1.512501
2600016, 0.120000, 1.512501
2600017, 0.128000, 1.512501
2600018, 0.136000, 1.512501
2600019, 0.144000, 1.512501
2600020, 0.152000, 1.512501
2600021, 0.160000, 1.512501
2600022, 0.168000, 1.512501
2600023, 0.176000, 1.512501
2600024, 0.184000, 1.512501
2600025, 0.192000, 1.512501
2600026, 0.200000, 1.512501
2600027, 0.208000, 1.512501
2600028, 0.216000, 1.512501
2600029, 0.224000, 1.512501
2600030, 0.232000, 1.512501
2600031, 0.240000, 1.512501
2600032, 0.248000, 1.512501
2600033, 0.257600, 1.512501
2600034, 0.269120, 1.512501
2600035, 0.282944, 1.512501
2600036, 0.299533, 1.512501
2600037, 0.319439, 1.512501
2600038, 0.343327, 1.512501
2600039, 0.371993, 1.512501
2600040, 0.406391, 1.512501
2600041, 0.447669, 1.512501
2600042, 0.497203, 1.512501
2600043, 0.556644, 1.512501
2600044, 0.627973, 1.512501
2600045, 0.713567, 1.512501
2600046, 0.816281, 1.512501
2600047, 0.939537, 1.512501
2600048, 1.087444, 1.512501
2600049, 1.264933, 1.512501
2600050, 1.477920, 1.512501
2600051, 1.733504, 1.512501
2600052, 2.000000, 1.512501
2700001, 0.000000, 1.532501
2700002, 0.008000, 1.532501
2700003, 0.016000, 1.532501
2700004, 0.024000, 1.532501
2700005, 0.032000, 1.532501
2700006, 0.040000, 1.532501
2700007, 0.048000, 1.532501
2700008, 0.056000, 1.532501
2700009, 0.064000, 1.532501
2700010, 0.072000, 1.532501
2700011, 0.080000, 1.532501
2700012, 0.088000, 1.532501
2700013, 0.096000, 1.532501
2700014, 0.104000, 1.532501
2700015, 0.112000, 1.532501
2700016, 0.120000, 1.532501
2700017, 0.128000, 1.532501
2700018, 0.136000, 1.532501
2700019, 0.144000, 1.532501
2700020, 0.152000, 1.532501
2700021, 0.160000, 1.532501
2700022, 0.168000, 1.532501
2700023, 0.176000, 1.532501
2700024, 0.184000, 1.532501
2700025, 0.192000, 1.532501
2700026, 0.200000, 1.532501
2700027, 0.208000, 1.532501
2700028, 0.216000, 1.532501
2700029, 0.224000, 1.532501
2700030, 0.232000, 1.532501
2700031, 0.240000, 1.532501
2700032, 0.248000, 1.532501
2700033, 0.257600, 1.532501
2700034, 0.269120, 1.532501
2700035, 0.282944, 1.532501
2700036, 0.299533, 1.532501
2700037, 0.319439, 1.532501
2700038, 0.343327, 1.532501
2700039, 0.371993, 1.532501
2700040, 0.406391, 1.532501
2700041, 0.447669, 1.532501
2700042, 0.497203, 1.532501
2700043, 0.556644, 1.532501
2700044, 0.627973, 1.532501
2700045, 0.713567, 1.532501
2700046, 0.816281, 1.532501
2700047, 0.939537, 1.532501
2700048, 1.087444, 1.532501
2700049, 1.264933, 1.532501
2700050, 1.477920, 1.532501
2700051, 1.733504, 1.532501
2700052, 2.000000, 1.532501
2800001, 0.000000, 1.552501
2800002, 0.008000, 1.552501
2800003, 0.016000, 1.552501
2800004, 0.024000, 1.552501
2800005, 0.032000, 1.552501
2800006, 0.040000, 1.552501
2800007, 0.048000, 1.552501
2800008, 0.056000, 1.552501
2800009, 0.064000, 1.552501
2800010, 0.072000, 1.552501
2800011, 0.080000, 1.552501
2800012, 0.088000, 1.552501
2800013, 0.096000, 1.552501
2800014, 0.104000, 1.552501
2800015, 0.112000, 1.552501
2800016, 0.120000, 1.552501
2800017, 0.128000, 1.552501
2800018, 0.136000, 1.552501
2800019, 0.144000, 1.552501
2800020, 0.152000, 1.552501
2800021, 0.160000, 1.552501
2800022, 0.168000, 1.552501
2800023, 0.176000, 1.552501
2800024, 0.184000, 1.552501
2800025, 0.192000, 1.552501
2800026, 0.200000, 1.552501
2800027, 0.208000, 1.552501
2800028, 0.216000, 1.552501
2800029, 0.224000, 1.552501
2800030, 0.232000, 1.552501
2800031, 0.240000, 1.552501
2800032, 0.248000, 1.552501
2800033, 0.257600, 1.552501
2800034, 0.269120, 1.552501
2800035, 0.282944, 1.552501
2800036, 0.299533, 1.552501
2800037, 0.319439, 1.552501
2800038, 0.343327, 1.552501
2800039, 0.371993, 1.552501
2800040, 0.406391, 1.552501
2800041, 0.447669, 1.552501
2800042, 0.497203, 1.552501
2800043, 0.556644, 1.552501
2800044, 0.627973, 1.552501
2800045, 0.713567, 1.552501
2800046, 0.816281, 1.552501
2800047, 0.939537, 1.552501
2800048, 1.087444, 1.552501
2800049, 1.264933, 1.552501
2800050, 1.477920, 1.552501
2800051, 1.733504, 1.552501
2800052, 2.000000, 1.552501
2900001, 0.000000, 1.572501
2900002, 0.008000, 1.572501
2900003, 0.016000, 1.572501
2900004, 0.024000, 1.572501
2900005, 0.032000, 1.572501
2900006, 0.040000, 1.572501
2900007, 0.048000, 1.572501
2900008, 0.056000, 1.572501
2900009, 0.064000, 1.572501
2900010, 0.072000, 1.572501
2900011, 0.080000, 1.572501
2900012, 0.088000, 1.572501
2900013, 0.096000, 1.572501
2900014, 0.104000, 1.572501
2900015, 0.112000, 1.572501
2900016, 0.120000, 1.572501
2900017, 0.128000, 1.572501
2900018, 0.136000, 1.572501
2900019, 0.144000, 1.572501
2900020, 0.152000, 1.572501
2900021, 0.160000, 1.572501
2900022, 0.168000, 1.572501
2900023, 0.176000, 1.572501
2900024, 0.184000, 1.572501
2900025, 0.192000, 1.572501
2900026, 0.200000, 1.572501
2900027, 0.208000, 1.572501
2900028, 0.216000, 1.572501
2900029, 0.224000, 1.572501
2900030, 0.232000, 1.572501
2900031, 0.240000, 1.572501
2900032, 0.248000, 1.572501
2900033, 0.257600, 1.572501
2900034, 0.269120, 1.572501
2900035, 0.282944, 1.572501
2900036, 0.299533, 1.572501
2900037, 0.319439, 1.572501
2900038, 0.343327, 1.572501
2900039, 0.371993, 1.572501
2900040, 0.406391, 1.572501
2900041, 0.447669, 1.572501
2900042, 0.497203, 1.572501
2900043, 0.556644, 1.572501
2900044, 0.627973, 1.572501
2900045, 0.713567, 1.572501
2900046, 0.816281, 1.572501
2900047, 0.939537, 1.572501
2900048, 1.087444, 1.572501
2900049, 1.264933, 1.572501
2900050, 1.477920, 1.572501
2900051, 1.733504, 1.572501
2900052, 2.000000, 1.572501
3000001, 0.000000, 1.592501
3000002, 0.008000, 1.592501
3000003, 0.016000, 1.592501
3000004, 0.024000, 1.592501
3000005, 0.032000, 1.592501
3000006, 0.040000, 1.592501
3000007, 0.048000, 1.592501
3000008, 0.056000, 1.592501
3000009, 0.064000, 1.592501
3000010, 0.072000, 1.592501
3000011, 0.080000, 1.592501
3000012, 0.088000, 1.592501
3000013, 0.096000, 1.592501
3000014, 0.104000, 1.592501
3000015, 0.112000, 1.592501
3000016, 0.120000, 1.592501
3000017, 0.128000, 1.592501
3000018, 0.136000, 1.592501
3000019, 0.144000, 1.592501
3000020, 0.152000, 1.592501
3000021, 0.160000, 1.592501
3000022, 0.168000, 1.592501
3000023, 0.176000, 1.592501
3000024, 0.184000, 1.592501
3000025, 0.192000, 1.592501
3000026, 0.200000, 1.592501
3000027, 0.208000, 1.592501
3000028, 0.216000, 1.592501
3000029, 0.224000, 1.592501
3000030, 0.232000, 1.592501
3000031, 0.240000, 1.592501
3000032, 0.248000, 1.592501
3000033, 0.257600, 1.592501
3000034, 0.269120, 1.592501
3000035, 0.282944, 1.592501
3000036, 0.299533, 1.592501
3000037, 0.319439, 1.592501
3000038, 0.343327, 1.592501
3000039, 0.371993, 1.592501
3000040, 0.406391, 1.592501
3000041, 0.447669, 1.592501
3000042, 0.497203, 1.592501
3000043, 0.556644, 1.592501
3000044, 0.627973, 1.592501
3000045, 0.713567, 1.592501
3000046, 0.816281, 1.592501
3000047, 0.939537, 1.592501
3000048, 1.087444, 1.592501
3000049, 1.264933, 1.592501
3000050, 1.477920, 1.592501
3000051, 1.733504, 1.592501
3000052, 2.000000, 1.592501
3100001, 0.000000, 1.612501
3100002, 0.008000, 1.612501
3100003, 0.016000, 1.612501
3100004, 0.024000, 1.612501
3100005, 0.032000, 1.612501
3100006, 0.040000, 1.612501
3100007, 0.048000, 1.612501
3100008, 0.056000, 1.612501
3100009, 0.064000, 1.612501
3100010, 0.072000, 1.612501
3100011, 0.080000, 1.612501
3100012, 0.088000, 1.612501
3100013, 0.096000, 1.612501
3100014, 0.104000, 1.612501
3100015, 0.112000, 1.612501
3100016, 0.120000, 1.612501
3100017, 0.128000, 1.612501
3100018, 0.136000, 1.612501
3100019, 0.144000, 1.612501
3100020, 0.152000, 1.612501
3100021, 0.160000, 1.612501
3100022, 0.168000, 1.612501
3100023, 0.176000, 1.612501
3100024, 0.184000, 1.612501
3100025, 0.192000, 1.612501
3100026, 0.200000, 1.612501
3100027, 0.208000, 1.612501
3100028, 0.216000, 1.612501
3100029, 0.224000, 1.612501
3100030, 0.232000, 1.612501
3100031, 0.240000, 1.612501
3100032, 0.248000, 1.612501
3100033, 0.257600, 1.612501
3100034, 0.269120, 1.612501
3100035, 0.282944, 1.612501
3100036, 0.299533, 1.612501
3100037, 0.319439, 1.612501
3100038, 0.343327, 1.612501
3100039, 0.371993, 1.612501
3100040, 0.406391, 1.612501
3100041, 0.447669, 1.612501
3100042, 0.497203, 1.612501
3100043, 0.556644, 1.612501
3100044, 0.627973, 1.612501
3100045, 0.713567, 1.612501
3100046, 0.816281, 1.612501
3100047, 0.939537, 1.612501
3100048, 1.087444, 1.612501
3100049, 1.264933, 1.612501
3100050, 1.477920, 1.612501
3100051, 1.733504, 1.612501
3100052, 2.000000, 1.612501
3200001, 0.000000, 1.632501
3200002, 0.008000, 1.632501
3200003, 0.016000, 1.632501
3200004, 0.024000, 1.632501
3200005, 0.032000, 1.632501
3200006, 0.040000, 1.632501
3200007, 0.048000, 1.632501
3200008, 0.056000, 1.632501
3200009, 0.064000, 1.632501
3200010, 0.072000, 1.632501
3200011, 0.080000, 1.632501
3200012, 0.088000, 1.632501
3200013, 0.096000, 1.632501
3200014, 0.104000, 1.632501
3200015, 0.112000, 1.632501
3200016, 0.120000, 1.632501
3200017, 0.128000, 1.632501
3200018, 0.136000, 1.632501
3200019, 0.144000, 1.632501
3200020, 0.152000, 1.632501
3200021, 0.160000, 1.632501
3200022, 0.168000, 1.632501
3200023, 0.176000, 1.632501
3200024, 0.184000, 1.632501
3200025, 0.192000, 1.632501
3200026, 0.200000, 1.632501
3200027, 0.208000, 1.632501
3200028, 0.216000, 1.632501
3200029, 0.224000, 1.632501
3200030, 0.232000, 1.632501
3200031, 0.240000, 1.632501
3200032, 0.248000, 1.632501
3200033, 0.257600, 1.632501
3200034, 0.269120, 1.632501
3200035, 0.282944, 1.632501
3200036, 0.299533, 1.632501
3200037, 0.319439, 1.632501
3200038, 0.343327, 1.632501
3200039, 0.371993, 1.632501
3200040, 0.406391, 1.632501
3200041, 0.447669, 1.632501
3200042, 0.497203, 1.632501
3200043, 0.556644, 1.632501
3200044, 0.627973, 1.632501
3200045, 0.713567, 1.632501
3200046, 0.816281, 1.632501
3200047, 0.939537, 1.632501
3200048, 1.087444, 1.632501
3200049, 1.264933, 1.632501
3200050, 1.477920, 1.632501
3200051, 1.733504, 1.632501
3200052, 2.000000, 1.632501
3300001, 0.000000, 1.652501
3300002, 0.008000, 1.652501
3300003, 0.016000, 1.652501
3300004, 0.024000, 1.652501
3300005, 0.032000, 1.652501
3300006, 0.040000, 1.652501
3300007, 0.048000, 1.652501
3300008, 0.056000, 1.652501
3300009, 0.064000, 1.652501
3300010, 0.072000, 1.652501
3300011, 0.080000, 1.652501
3300012, 0.088000, 1.652501
3300013, 0.096000, 1.652501
3300014, 0.104000, 1.652501
3300015, 0.112000, 1.652501
3300016, 0.120000, 1.652501
3300017, 0.128000, 1.652501
3300018, 0.136000, 1.652501
3300019, 0.144000, 1.652501
3300020, 0.152000, 1.652501
3300021, 0.160000, 1.652501
3300022, 0.168000, 1.652501
3300023, 0.176000, 1.652501
3300024, 0.184000, 1.652501
3300025, 0.192000, 1.652501
3300026, 0.200000, 1.652501
3300027, 0.208000, 1.652501
3300028, 0.216000, 1.652501
3300029, 0.224000, 1.652501
3300030, 0.232000, 1.652501
3300031, 0.240000, 1.652501
3300032, 0.248000, 1.652501
3300033, 0.257600, 1.652501
3300034, 0.269120, 1.652501
3300035, 0.282944, 1.652501
3300036, 0.299533, 1.652501
3300037, 0.319439, 1.652501
3300038, 0.343327, 1.652501
3300039, 0.371993, 1.652501
3300040, 0.406391, 1.652501
3300041, 0.447669, 1.652501
3300042, 0.497203, 1.652501
3300043, 0.556644, 1.652501
3300044, 0.627973, 1.652501
3300045, 0.713567, 1.652501
3300046, 0.816281, 1.652501
3300047, 0.939537, 1.652501
3300048, 1.087444, 1.652501
3300049, 1.264933, 1.652501
3300050, 1.477920, 1.652501
3300051, 1.733504, 1.652501
3300052, 2.000000, 1.652501
3400001, 0.000000, 1.672501
3400002, 0.008000, 1.672501
3400003, 0.016000, 1.672501
3400004, 0.024000, 1.672501
3400005, 0.032000, 1.672501
3400006, 0.040000, 1.672501
3400007, 0.048000, 1.672501
3400008, 0.056000, 1.672501
3400009, 0.064000, 1.672501
3400010, 0.072000, 1.672501
3400011, 0.080000, 1.672501
3400012, 0.088000, 1.672501
3400013, 0.096000, 1.672501
3400014, 0.104000, 1.672501
3400015, 0.112000, 1.672501
3400016, 0.120000, 1.672501
3400017, 0.128000, 1.672501
3400018, 0.136000, 1.672501
3400019, 0.144000, 1.672501
3400020, 0.152000, 1.672501
3400021, 0.160000, 1.672501
3400022, 0.168000, 1.672501
3400023, 0.176000, 1.672501
3400024, 0.184000, 1.672501
3400025, 0.192000, 1.672501
3400026, 0.200000, 1.672501
3400027, 0.208000, 1.672501
3400028, 0.216000, 1.672501
3400029, 0.224000, 1.672501
3400030, 0.232000, 1.672501
3400031, 0.240000, 1.672501
3400032, 0.248000, 1.672501
3400033, 0.257600, 1.672501
3400034, 0.269120, 1.672501
3400035, 0.282944, 1.672501
3400036, 0.299533, 1.672501
3400037, 0.319439, 1.672501
3400038, 0.343327, 1.672501
3400039, 0.371993, 1.672501
3400040, 0.406391, 1.672501
3400041, 0.447669, 1.672501
3400042, 0.497203, 1.672501
3400043, 0.556644, 1.672501
3400044, 0.627973, 1.672501
3400045, 0.713567, 1.672501
3400046, 0.816281, 1.672501
3400047, 0.939537, 1.672501
3400048, 1.087444, 1.672501
3400049, 1.264933, 1.672501
3400050, 1.477920, 1.672501
3400051, 1.733504, 1.672501
3400052, 2.000000, 1.672501
3500001, 0.000000, 1.692501
3500002, 0.008000, 1.692501
3500003, 0.016000, 1.692501
3500004, 0.024000, 1.692501
3500005, 0.032000, 1.692501
3500006, 0.040000, 1.692501
3500007, 0.048000, 1.692501
3500008, 0.056000, 1.692501
3500009, 0.064000, 1.692501
3500010, 0.072000, 1.692501
3500011, 0.080000, 1.692501
3500012, 0.088000, 1.692501
3500013, 0.096000, 1.692501
3500014, 0.104000, 1.692501
3500015, 0.112000, 1.692501
3500016, 0.120000, 1.692501
3500017, 0.128000, 1.692501
3500018, 0.136000, 1.692501
3500019, 0.144000, 1.692501
3500020, 0.152000, 1.692501
3500021, 0.160000, 1.692501
3500022, 0.168000, 1.692501
3500023, 0.176000, 1.692501
3500024, 0.184000, 1.692501
3500025, 0.192000, 1.692501
3500026, 0.200000, 1.692501
3500027, 0.208000, 1.692501
3500028, 0.216000, 1.692501
3500029, 0.224000, 1.692501
3500030, 0.232000, 1.692501
3500031, 0.240000, 1.692501
3500032, 0.248000, 1.692501
3500033, 0.257600, 1.692501
3500034, 0.269120, 1.692501
3500035, 0.282944, 1.692501
3500036, 0.299533, 1.692501
3500037, 0.319439, 1.692501
3500038, 0.343327, 1.692501
3500039, 0.371993, 1.692501
3500040, 0.406391, 1.692501
3500041, 0.447669, 1.692501
3500042, 0.497203, 1.692501
3500043, 0.556644, 1.692501
3500044, 0.627973, 1.692501
3500045, 0.713567, 1.692501
3500046, 0.816281, 1.692501
3500047, 0.939537, 1.692501
3500048, 1.087444, 1.692501
3500049, 1.264933, 1.692501
3500050, 1.477920, 1.692501
3500051, 1.733504, 1.692501
3500052, 2.000000, 1.692501
3600001, 0.000000, 1.712501
3600002, 0.008000, 1.712501
3600003, 0.016000, 1.712501
3600004, 0.024000, 1.712501
3600005, 0.032000, 1.712501
3600006, 0.040000, 1.712501
3600007, 0.048000, 1.712501
3600008, 0.056000, 1.712501
3600009, 0.064000, 1.712501
3600010, 0.072000, 1.712501
3600011, 0.080000, 1.712501
3600012, 0.088000, 1.712501
3600013, 0.096000, 1.712501
3600014, 0.104000, 1.712501
3600015, 0.112000, 1.712501
3600016, 0.120000, 1.712501
3600017, 0.128000, 1.712501
3600018, 0.136000, 1.712501
3600019, 0.144000, 1.712501
3600020, 0.152000, 1.712501
3600021, 0.160000, 1.712501
3600022, 0.168000, 1.712501
3600023, 0.176000, 1.712501
3600024, 0.184000, 1.712501
3600025, 0.192000, 1.712501
3600026, 0.200000, 1.712501
3600027, 0.208000, 1.712501
3600028, 0.216000, 1.712501
3600029, 0.224000, 1.712501
3600030, 0.232000, 1.712501
3600031, 0.240000, 1.712501
3600032, 0.248000, 1.712501
3600033, 0.257600, 1.712501
3600034, 0.269120, 1.712501
3600035, 0.282944, 1.712501
3600036, 0.299533, 1.712501
3600037, 0.319439, 1.712501
3600038, 0.343327, 1.712501
3600039, 0.371993, 1.712501
3600040, 0.406391, 1.712501
3600041, 0.447669, 1.712501
3600042, 0.497203, 1.712501
3600043, 0.556644, 1.712501
3600044, 0.627973, 1.712501
3600045, 0.713567, 1.712501
3600046, 0.816281, 1.712501
3600047, 0.939537, 1.712501
3600048, 1.087444, 1.712501
3600049, 1.264933, 1.712501
3600050, 1.477920, 1.712501
3600051, 1.733504, 1.712501
3600052, 2.000000, 1.712501
3700001, 0.000000, 1.732501
3700002, 0.008000, 1.732501
3700003, 0.016000, 1.732501
3700004, 0.024000, 1.732501
3700005, 0.032000, 1.732501
3700006, 0.040000, 1.732501
3700007, 0.048000, 1.732501
3700008, 0.056000, 1.732501
3700009, 0.064000, 1.732501
3700010, 0.072000, 1.732501
3700011, 0.080000, 1.732501
3700012, 0.088000, 1.732501
3700013, 0.096000, 1.732501
3700014, 0.104000, 1.732501
3700015, 0.112000, 1.732501
3700016, 0.120000, 1.732501
3700017, 0.128000, 1.732501
3700018, 0.136000, 1.732501
3700019, 0.144000, 1.732501
3700020, 0.152000, 1.732501
3700021, 0.160000, 1.732501
3700022, 0.168000, 1.732501
3700023, 0.176000, 1.732501
3700024, 0.184000, 1.732501
3700025, 0.192000, 1.732501
3700026, 0.200000, 1.732501
3700027, 0.208000, 1.732501
3700028, 0.216000, 1.732501
3700029, 0.224000, 1.732501
3700030, 0.232000, 1.732501
3700031, 0.240000, 1.732501
3700032, 0.248000, 1.732501
3700033, 0.257600, 1.732501
3700034, 0.269120, 1.732501
3700035, 0.282944, 1.732501
3700036, 0.299533, 1.732501
3700037, 0.319439, 1.732501
3700038, 0.343327, 1.732501
3700039, 0.371993, 1.732501
3700040, 0.406391, 1.732501
3700041, 0.447669, 1.732501
3700042, 0.497203, 1.732501
3700043, 0.556644, 1.732501
3700044, 0.627973, 1.732501
3700045, 0.713567, 1.732501
3700046, 0.816281, 1.732501
3700047, 0.939537, 1.732501
3700048, 1.087444, 1.732501
3700049, 1.264933, 1.732501
3700050, 1.477920, 1.732501
3700051, 1.733504, 1.732501
3700052, 2.000000, 1.732501
3800001, 0.000000, 1.752501
3800002, 0.008000, 1.752501
3800003, 0.016000, 1.752501
3800004, 0.024000, 1.752501
3800005, 0.032000, 1.752501
3800006, 0.040000, 1.752501
3800007, 0.048000, 1.752501
3800008, 0.056000, 1.752501
3800009, 0.064000, 1.752501
3800010, 0.072000, 1.752501
3800011, 0.080000, 1.752501
3800012, 0.088000, 1.752501
3800013, 0.096000, 1.752501
3800014, 0.104000, 1.752501
3800015, 0.112000, 1.752501
3800016, 0.120000, 1.752501
3800017, 0.128000, 1.752501
3800018, 0.136000, 1.752501
3800019, 0.144000, 1.752501
3800020, 0.152000, 1.752501
3800021, 0.160000, 1.752501
3800022, 0.168000, 1.752501
3800023, 0.176000, 1.752501
3800024, 0.184000, 1.752501
3800025, 0.192000, 1.752501
3800026, 0.200000, 1.752501
3800027, 0.208000, 1.752501
3800028, 0.216000, 1.752501
3800029, 0.224000, 1.752501
3800030, 0.232000, 1.752501
3800031, 0.240000, 1.752501
3800032, 0.248000, 1.752501
3800033, 0.257600, 1.752501
3800034, 0.269120, 1.752501
3800035, 0.282944, 1.752501
3800036, 0.299533, 1.752501
3800037, 0.319439, 1.752501
3800038, 0.343327, 1.752501
3800039, 0.371993, 1.752501
3800040, 0.406391, 1.752501
3800041, 0.447669, 1.752501
3800042, 0.497203, 1.752501
3800043, 0.556644, 1.752501
3800044, 0.627973, 1.752501
3800045, 0.713567, 1.752501
3800046, 0.816281, 1.752501
3800047, 0.939537, 1.752501
3800048, 1.087444, 1.752501
3800049, 1.264933, 1.752501
3800050, 1.477920, 1.752501
3800051, 1.733504, 1.752501
3800052, 2.000000, 1.752501
3900001, 0.000000, 1.772501
3900002, 0.008000, 1.772501
3900003, 0.016000, 1.772501
3900004, 0.024000, 1.772501
3900005, 0.032000, 1.772501
3900006, 0.040000, 1.772501
3900007, 0.048000, 1.772501
3900008, 0.056000, 1.772501
3900009, 0.064000, 1.772501
3900010, 0.072000, 1.772501
3900011, 0.080000, 1.772501
3900012, 0.088000, 1.772501
3900013, 0.096000, 1.772501
3900014, 0.104000, 1.772501
3900015, 0.112000, 1.772501
3900016, 0.120000, 1.772501
3900017, 0.128000, 1.772501
3900018, 0.136000, 1.772501
3900019, 0.144000, 1.772501
3900020, 0.152000, 1.772501
3900021, 0.160000, 1.772501
3900022, 0.168000, 1.772501
3900023, 0.176000, 1.772501
3900024, 0.184000, 1.772501
3900025, 0.192000, 1.772501
3900026, 0.200000, 1.772501
3900027, 0.208000, 1.772501
3900028, 0.216000, 1.772501
3900029, 0.224000, 1.772501
3900030, 0.232000, 1.772501
3900031, 0.240000, 1.772501
3900032, 0.248000, 1.772501
3900033, 0.257600, 1.772501
3900034, 0.269120, 1.772501
3900035, 0.282944, 1.772501
3900036, 0.299533, 1.772501
3900037, 0.319439, 1.772501
3900038, 0.343327, 1.772501
3900039, 0.371993, 1.772501
3900040, 0.406391, 1.772501
3900041, 0.447669, 1.772501
3900042, 0.497203, 1.772501
3900043, 0.556644, 1.772501
3900044, 0.627973, 1.772501
3900045, 0.713567, 1.772501
3900046, 0.816281, 1.772501
3900047, 0.939537, 1.772501
3900048, 1.087444, 1.772501
3900049, 1.264933, 1.772501
3900050, 1.477920, 1.772501
3900051, 1.733504, 1.772501
3900052, 2.000000, 1.772501
4000001, 0.000000, 1.792501
4000002, 0.008000, 1.792501
4000003, 0.016000, 1.792501
4000004, 0.024000, 1.792501
4000005, 0.032000, 1.792501
4000006, 0.040000, 1.792501
4000007, 0.048000, 1.792501
4000008, 0.056000, 1.792501
4000009, 0.064000, 1.792501
4000010, 0.072000, 1.792501
4000011, 0.080000, 1.792501
4000012, 0.088000, 1.792501
4000013, 0.096000, 1.792501
4000014, 0.104000, 1.792501
4000015, 0.112000, 1.792501
4000016, 0.120000, 1.792501
4000017, 0.128000, 1.792501
4000018, 0.136000, 1.792501
4000019, 0.144000, 1.792501
4000020, 0.152000, 1.792501
4000021, 0.160000, 1.792501
4000022, 0.168000, 1.792501
4000023, 0.176000, 1.792501
4000024, 0.184000, 1.792501
4000025, 0.192000, 1.792501
4000026, 0.200000, 1.792501
4000027, 0.208000, 1.792501
4000028, 0.216000, 1.792501
4000029, 0.224000, 1.792501
4000030, 0.232000, 1.792501
4000031, 0.240000, 1.792501
4000032, 0.248000, 1.792501
4000033, 0.257600, 1.792501
4000034, 0.269120, 1.792501
4000035, 0.282944, 1.792501
4000036, 0.299533, 1.792501
4000037, 0.319439, 1.792501
4000038, 0.343327, 1.792501
4000039, 0.371993, 1.792501
4000040, 0.406391, 1.792501
4000041, 0.447669, 1.792501
4000042, 0.497203, 1.792501
4000043, 0.556644, 1.792501
4000044, 0.627973, 1.792501
4000045, 0.713567, 1.792501
4000046, 0.816281, 1.792501
4000047, 0.939537, 1.792501
4000048, 1.087444, 1.792501
4000049, 1.264933, 1.792501
4000050, 1.477920, 1.792501
4000051, 1.733504, 1.792501
4000052, 2.000000, 1.792501
4100001, 0.000000, 1.812501
4100002, 0.008000, 1.812501
4100003, 0.016000, 1.812501
4100004, 0.024000, 1.812501
4100005, 0.032000, 1.812501
4100006, 0.040000, 1.812501
4100007, 0.048000, 1.812501
4100008, 0.056000, 1.812501
4100009, 0.064000, 1.812501
4100010, 0.072000, 1.812501
4100011, 0.080000, 1.812501
4100012, 0.088000, 1.812501
4100013, 0.096000, 1.812501
4100014, 0.104000, 1.812501
4100015, 0.112000, 1.812501
4100016, 0.120000, 1.812501
4100017, 0.128000, 1.812501
4100018, 0.136000, 1.812501
4100019, 0.144000, 1.812501
4100020, 0.152000, 1.812501
4100021, 0.160000, 1.812501
4100022, 0.168000, 1.812501
4100023, 0.176000, 1.812501
4100024, 0.184000, 1.812501
4100025, 0.192000, 1.812501
4100026, 0.200000, 1.812501
4100027, 0.208000, 1.812501
4100028, 0.216000, 1.812501
4100029, 0.224000, 1.812501
4100030, 0.232000, 1.812501
4100031, 0.240000, 1.812501
4100032, 0.248000, 1.812501
4100033, 0.257600, 1.812501
4100034, 0.269120, 1.812501
4100035, 0.282944, 1.812501
4100036, 0.299533, 1.812501
4100037, 0.319439, 1.812501
4100038, 0.343327, 1.812501
4100039, 0.371993, 1.812501
4100040, 0.406391, 1.812501
4100041, 0.447669, 1.812501
4100042, 0.497203, 1.812501
4100043, 0.556644, 1.812501
4100044, 0.627973, 1.812501
4100045, 0.713567, 1.812501
4100046, 0.816281, 1.812501
4100047, 0.939537, 1.812501
4100048, 1.087444, 1.812501
4100049, 1.264933, 1.812501
4100050, 1.477920, 1.812501
4100051, 1.733504, 1.812501
4100052, 2.000000, 1.812501
4200001, 0.000000, 1.832501
4200002, 0.008000, 1.832501
4200003, 0.016000, 1.832501
4200004, 0.024000, 1.832501
4200005, 0.032000, 1.832501
4200006, 0.040000, 1.832501
4200007, 0.048000, 1.832501
4200008, 0.056000, 1.832501
4200009, 0.064000, 1.832501
4200010, 0.072000, 1.832501
4200011, 0.080000, 1.832501
4200012, 0.088000, 1.832501
4200013, 0.096000, 1.832501
4200014, 0.104000, 1.832501
4200015, 0.112000, 1.832501
4200016, 0.120000, 1.832501
4200017, 0.128000, 1.832501
4200018, 0.136000, 1.832501
4200019, 0.144000, 1.832501
4200020, 0.152000, 1.832501
4200021, 0.160000, 1.832501
4200022, 0.168000, 1.832501
4200023, 0.176000, 1.832501
4200024, 0.184000, 1.832501
4200025, 0.192000, 1.832501
4200026, 0.200000, 1.832501
4200027, 0.208000, 1.832501
4200028, 0.216000, 1.832501
4200029, 0.224000, 1.832501
4200030, 0.232000, 1.832501
4200031, 0.240000, 1.832501
4200032, 0.248000, 1.832501
4200033, 0.257600, 1.832501
4200034, 0.269120, 1.832501
4200035, 0.282944, 1.832501
4200036, 0.299533, 1.832501
4200037, 0.319439, 1.832501
4200038, 0.343327, 1.832501
4200039, 0.371993, 1.832501
4200040, 0.406391, 1.832501
4200041, 0.447669, 1.832501
4200042, 0.497203, 1.832501
4200043, 0.556644, 1.832501
4200044, 0.627973, 1.832501
4200045, 0.713567, 1.832501
4200046, 0.816281, 1.832501
4200047, 0.939537, 1.832501
4200048, 1.087444, 1.832501
4200049, 1.264933, 1.832501
4200050, 1.477920, 1.832501
4200051, 1.733504, 1.832501
4200052, 2.000000, 1.832501
4300001, 0.000000, 1.852501
4300002, 0.008000, 1.852501
4300003, 0.016000, 1.852501
4300004, 0.024000, 1.852501
4300005, 0.032000, 1.852501
4300006, 0.040000, 1.852501
4300007, 0.048000, 1.852501
4300008, 0.056000, 1.852501
4300009, 0.064000, 1.852501
4300010, 0.072000, 1.852501
4300011, 0.080000, 1.852501
4300012, 0.088000, 1.852501
4300013, 0.096000, 1.852501
4300014, 0.104000, 1.852501
4300015, 0.112000, 1.852501
4300016, 0.120000, 1.852501
4300017, 0.128000, 1.852501
4300018, 0.136000, 1.852501
4300019, 0.144000, 1.852501
4300020, 0.152000, 1.852501
4300021, 0.160000, 1.852501
4300022, 0.168000, 1.852501
4300023, 0.176000, 1.852501
4300024, 0.184000, 1.852501
4300025, 0.192000, 1.852501
4300026, 0.200000, 1.852501
4300027, 0.208000, 1.852501
4300028, 0.216000, 1.852501
4300029, 0.224000, 1.852501
4300030, 0.232000, 1.852501
4300031, 0.240000, 1.852501
4300032, 0.248000, 1.852501
4300033, 0.257600, 1.852501
4300034, 0.269120, 1.852501
4300035, 0.282944, 1.852501
4300036, 0.299533, 1.852501
4300037, 0.319439, 1.852501
4300038, 0.343327, 1.852501
4300039, 0.371993, 1.852501
4300040, 0.406391, 1.852501
4300041, 0.447669, 1.852501
4300042, 0.497203, 1.852501
4300043, 0.556644, 1.852501
4300044, 0.627973, 1.852501
4300045, 0.713567, 1.852501
4300046, 0.816281, 1.852501
4300047, 0.939537, 1.852501
4300048, 1.087444, 1.852501
4300049, 1.264933, 1.852501
4300050, 1.477920, 1.852501
4300051, 1.733504, 1.852501
4300052, 2.000000, 1.852501
4400001, 0.000000, 1.872501
4400002, 0.008000, 1.872501
4400003, 0.016000, 1.872501
4400004, 0.024000, 1.872501
4400005, 0.032000, 1.872501
4400006, 0.040000, 1.872501
4400007, 0.048000, 1.872501
4400008, 0.056000, 1.872501
4400009, 0.064000, 1.872501
4400010, 0.072000, 1.872501
4400011, 0.080000, 1.872501
4400012, 0.088000, 1.872501
4400013, 0.096000, 1.872501
4400014, 0.104000, 1.872501
4400015, 0.112000, 1.872501
4400016, 0.120000, 1.872501
4400017, 0.128000, 1.872501
4400018, 0.136000, 1.872501
4400019, 0.144000, 1.872501
4400020, 0.152000, 1.872501
4400021, 0.160000, 1.872501
4400022, 0.168000, 1.872501
4400023, 0.176000, 1.872501
4400024, 0.184000, 1.872501
4400025, 0.192000, 1.872501
4400026, 0.200000, 1.872501
4400027, 0.208000, 1.872501
4400028, 0.216000, 1.872501
4400029, 0.224000, 1.872501
4400030, 0.232000, 1.872501
4400031, 0.240000, 1.872501
4400032, 0.248000, 1.872501
4400033, 0.257600, 1.872501
4400034, 0.269120, 1.872501
4400035, 0.282944, 1.872501
4400036, 0.299533, 1.872501
4400037, 0.319439, 1.872501
4400038, 0.343327, 1.872501
4400039, 0.371993, 1.872501
4400040, 0.406391, 1.872501
4400041, 0.447669, 1.872501
4400042, 0.497203, 1.872501
4400043, 0.556644, 1.872501
4400044, 0.627973, 1.872501
4400045, 0.713567, 1.872501
4400046, 0.816281, 1.872501
4400047, 0.939537, 1.872501
4400048, 1.087444, 1.872501
4400049, 1.264933, 1.872501
4400050, 1.477920, 1.872501
4400051, 1.733504, 1.872501
4400052, 2.000000, 1.872501
4500001, 0.000000, 1.892501
4500002, 0.008000, 1.892501
4500003, 0.016000, 1.892501
4500004, 0.024000, 1.892501
4500005, 0.032000, 1.892501
4500006, 0.040000, 1.892501
4500007, 0.048000, 1.892501
4500008, 0.056000, 1.892501
4500009, 0.064000, 1.892501
4500010, 0.072000, 1.892501
4500011, 0.080000, 1.892501
4500012, 0.088000, 1.892501
4500013, 0.096000, 1.892501
4500014, 0.104000, 1.892501
4500015, 0.112000, 1.892501
4500016, 0.120000, 1.892501
4500017, 0.128000, 1.892501
4500018, 0.136000, 1.892501
4500019, 0.144000, 1.892501
4500020, 0.152000, 1.892501
4500021, 0.160000, 1.892501
4500022, 0.168000, 1.892501
4500023, 0.176000, 1.892501
4500024, 0.184000, 1.892501
4500025, 0.192000, 1.892501
4500026, 0.200000, 1.892501
4500027, 0.208000, 1.892501
4500028, 0.216000, 1.892501
4500029, 0.224000, 1.892501
4500030, 0.232000, 1.892501
4500031, 0.240000, 1.892501
4500032, 0.248000, 1.892501
4500033, 0.257600, 1.892501
4500034, 0.269120, 1.892501
4500035, 0.282944, 1.892501
4500036, 0.299533, 1.892501
4500037, 0.319439, 1.892501
4500038, 0.343327, 1.892501
4500039, 0.371993, 1.892501
4500040, 0.406391, 1.892501
4500041, 0.447669, 1.892501
4500042, 0.497203, 1.892501
4500043, 0.556644, 1.892501
4500044, 0.627973, 1.892501
4500045, 0.713567, 1.892501
4500046, 0.816281, 1.892501
4500047, 0.939537, 1.892501
4500048, 1.087444, 1.892501
4500049, 1.264933, 1.892501
4500050, 1.477920, 1.892501
4500051, 1.733504, 1.892501
4500052, 2.000000, 1.892501
4600001, 0.000000, 1.912501
4600002, 0.008000, 1.912501
4600003, 0.016000, 1.912501
4600004, 0.024000, 1.912501
4600005, 0.032000, 1.912501
4600006, 0.040000, 1.912501
4600007, 0.048000, 1.912501
4600008, 0.056000, 1.912501
4600009, 0.064000, 1.912501
4600010, 0.072000, 1.912501
4600011, 0.080000, 1.912501
4600012, 0.088000, 1.912501
4600013, 0.096000, 1.912501
4600014, 0.104000, 1.912501
4600015, 0.112000, 1.912501
4600016, 0.120000, 1.912501
4600017, 0.128000, 1.912501
4600018, 0.136000, 1.912501
4600019, 0.144000, 1.912501
4600020, 0.152000, 1.912501
4600021, 0.160000, 1.912501
4600022, 0.168000, 1.912501
4600023, 0.176000, 1.912501
4600024, 0.184000, 1.912501
4600025, 0.192000, 1.912501
4600026, 0.200000, 1.912501
4600027, 0.208000, 1.912501
4600028, 0.216000, 1.912501
4600029, 0.224000, 1.912501
4600030, 0.232000, 1.912501
4600031, 0.240000, 1.912501
4600032, 0.248000, 1.912501
4600033, 0.257600, 1.912501
4600034, 0.269120, 1.912501
4600035, 0.282944, 1.912501
4600036, 0.299533, 1.912501
4600037, 0.319439, 1.912501
4600038, 0.343327, 1.912501
4600039, 0.371993, 1.912501
4600040, 0.406391, 1.912501
4600041, 0.447669, 1.912501
4600042, 0.497203, 1.912501
4600043, 0.556644, 1.912501
4600044, 0.627973, 1.912501
4600045, 0.713567, 1.912501
4600046, 0.816281, 1.912501
4600047, 0.939537, 1.912501
4600048, 1.087444, 1.912501
4600049, 1.264933, 1.912501
4600050, 1.477920, 1.912501
4600051, 1.733504, 1.912501
4600052, 2.000000, 1.912501
4700001, 0.000000, 1.932501
4700002, 0.008000, 1.932501
4700003, 0.016000, 1.932501
4700004, 0.024000, 1.932501
4700005, 0.032000, 1.932501
4700006, 0.040000, 1.932501
4700007, 0.048000, 1.932501
4700008, 0.056000, 1.932501
4700009, 0.064000, 1.932501
4700010, 0.072000, 1.932501
4700011, 0.080000, 1.932501
4700012, 0.088000, 1.932501
4700013, 0.096000, 1.932501
4700014, 0.104000, 1.932501
4700015, 0.112000, 1.932501
4700016, 0.120000, 1.932501
4700017, 0.128000, 1.932501
4700018, 0.136000, 1.932501
4700019, 0.144000, 1.932501
4700020, 0.152000, 1.932501
4700021, 0.160000, 1.932501
4700022, 0.168000, 1.932501
4700023, 0.176000, 1.932501
4700024, 0.184000, 1.932501
4700025, 0.192000, 1.932501
4700026, 0.200000, 1.932501
4700027, 0.208000, 1.932501
4700028, 0.216000, 1.932501
4700029, 0.224000, 1.932501
4700030, 0.232000, 1.932501
4700031, 0.240000, 1.932501
4700032, 0.248000, 1.932501
4700033, 0.257600, 1.932501
4700034, 0.269120, 1.932501
4700035, 0.282944, 1.932501
4700036, 0.299533, 1.932501
4700037, 0.319439, 1.932501
4700038, 0.343327, 1.932501
4700039, 0.371993, 1.932501
4700040, 0.406391, 1.932501
4700041, 0.447669, 1.932501
4700042, 0.497203, 1.932501
4700043, 0.556644, 1.932501
4700044, 0.627973, 1.932501
4700045, 0.713567, 1.932501
4700046, 0.816281, 1.932501
4700047, 0.939537, 1.932501
4700048, 1.087444, 1.932501
4700049, 1.264933, 1.932501
4700050, 1.477920, 1.932501
4700051, 1.733504, 1.932501
4700052, 2.000000, 1.932501
4800001, 0.000000, 1.952501
4800002, 0.008000, 1.952501
4800003, 0.016000, 1.952501
4800004, 0.024000, 1.952501
4800005, 0.032000, 1.952501
4800006, 0.040000, 1.952501
4800007, 0.048000, 1.952501
4800008, 0.056000, 1.952501
4800009, 0.064000, 1.952501
4800010, 0.072000, 1.952501
4800011, 0.080000, 1.952501
4800012, 0.088000, 1.952501
4800013, 0.096000, 1.952501
4800014, 0.104000, 1.952501
4800015, 0.112000, 1.952501
4800016, 0.120000, 1.952501
4800017, 0.128000, 1.952501
4800018, 0.136000, 1.952501
4800019, 0.144000, 1.952501
4800020, 0.152000, 1.952501
4800021, 0.160000, 1.952501
4800022, 0.168000, 1.952501
4800023, 0.176000, 1.952501
4800024, 0.184000, 1.952501
4800025, 0.192000, 1.952501
4800026, 0.200000, 1.952501
4800027, 0.208000, 1.952501
4800028, 0.216000, 1.952501
4800029, 0.224000, 1.952501
4800030, 0.232000, 1.952501
4800031, 0.240000, 1.952501
4800032, 0.248000, 1.952501
4800033, 0.257600, 1.952501
4800034, 0.269120, 1.952501
4800035, 0.282944, 1.952501
4800036, 0.299533, 1.952501
4800037, 0.319439, 1.952501
4800038, 0.343327, 1.952501
4800039, 0.371993, 1.952501
4800040, 0.406391, 1.952501
4800041, 0.447669, 1.952501
4800042, 0.497203, 1.952501
4800043, 0.556644, 1.952501
4800044, 0.627973, 1.952501
4800045, 0.713567, 1.952501
4800046, 0.816281, 1.952501
4800047, 0.939537, 1.952501
4800048, 1.087444, 1.952501
4800049, 1.264933, 1.952501
4800050, 1.477920, 1.952501
4800051, 1.733504, 1.952501
4800052, 2.000000, 1.952501
4900001, 0.000000, 1.972501
4900002, 0.008000, 1.972501
4900003, 0.016000, 1.972501
4900004, 0.024000, 1.972501
4900005, 0.032000, 1.972501
4900006, 0.040000, 1.972501
4900007, 0.048000, 1.972501
4900008, 0.056000, 1.972501
4900009, 0.064000, 1.972501
4900010, 0.072000, 1.972501
4900011, 0.080000, 1.972501
4900012, 0.088000, 1.972501
4900013, 0.096000, 1.972501
4900014, 0.104000, 1.972501
4900015, 0.112000, 1.972501
4900016, 0.120000, 1.972501
4900017, 0.128000, 1.972501
4900018, 0.136000, 1.972501
4900019, 0.144000, 1.972501
4900020, 0.152000, 1.972501
4900021, 0.160000, 1.972501
4900022, 0.168000, 1.972501
4900023, 0.176000, 1.972501
4900024, 0.184000, 1.972501
4900025, 0.192000, 1.972501
4900026, 0.200000, 1.972501
4900027, 0.208000, 1.972501
4900028, 0.216000, 1.972501
4900029, 0.224000, 1.972501
4900030, 0.232000, 1.972501
4900031, 0.240000, 1.972501
4900032, 0.248000, 1.972501
4900033, 0.257600, 1.972501
4900034, 0.269120, 1.972501
4900035, 0.282944, 1.972501
4900036, 0.299533, 1.972501
4900037, 0.319439, 1.972501
4900038, 0.343327, 1.972501
4900039, 0.371993, 1.972501
4900040, 0.406391, 1.972501
4900041, 0.447669, 1.972501
4900042, 0.497203, 1.972501
4900043, 0.556644, 1.972501
4900044, 0.627973, 1.972501
4900045, 0.713567, 1.972501
4900046, 0.816281, 1.972501
4900047, 0.939537, 1.972501
4900048, 1.087444, 1.972501
4900049, 1.264933, 1.972501
4900050, 1.477920, 1.972501
4900051, 1.733504, 1.972501
4900052, 2.000000, 1.972501
5000001, 0.000000, 1.992501
5000002, 0.008000, 1.992501
5000003, 0.016000, 1.992501
5000004, 0.024000, 1.992501
5000005, 0.032000, 1.992501
5000006, 0.040000, 1.992501
5000007, 0.048000, 1.992501
5000008, 0.056000, 1.992501
5000009, 0.064000, 1.992501
5000010, 0.072000, 1.992501
5000011, 0.080000, 1.992501
5000012, 0.088000, 1.992501
5000013, 0.096000, 1.992501
5000014, 0.104000, 1.992501
5000015, 0.112000, 1.992501
5000016, 0.120000, 1.992501
5000017, 0.128000, 1.992501
5000018, 0.136000, 1.992501
5000019, 0.144000, 1.992501
5000020, 0.152000, 1.992501
5000021, 0.160000, 1.992501
5000022, 0.168000, 1.992501
5000023, 0.176000, 1.992501
5000024, 0.184000, 1.992501
5000025, 0.192000, 1.992501
5000026, 0.200000, 1.992501
5000027, 0.208000, 1.992501
5000028, 0.216000, 1.992501
5000029, 0.224000, 1.992501
5000030, 0.232000, 1.992501
5000031, 0.240000, 1.992501
5000032, 0.248000, 1.992501
5000033, 0.257600, 1.992501
5000034, 0.269120, 1.992501
5000035, 0.282944, 1.992501
5000036, 0.299533, 1.992501
5000037, 0.319439, 1.992501
5000038, 0.343327, 1.992501
5000039, 0.371993, 1.992501
5000040, 0.406391, 1.992501
5000041, 0.447669, 1.992501
5000042, 0.497203, 1.992501
5000043, 0.556644, 1.992501
5000044, 0.627973, 1.992501
5000045, 0.713567, 1.992501
5000046, 0.816281, 1.992501
5000047, 0.939537, 1.992501
5000048, 1.087444, 1.992501
5000049, 1.264933, 1.992501
5000050, 1.477920, 1.992501
5000051, 1.733504, 1.992501
5000052, 2.000000, 1.992501
5100001, 0.000000, 2.012501
5100002, 0.008000, 2.012501
5100003, 0.016000, 2.012501
5100004, 0.024000, 2.012501
5100005, 0.032000, 2.012501
5100006, 0.040000, 2.012501
5100007, 0.048000, 2.012501
5100008, 0.056000, 2.012501
5100009, 0.064000, 2.012501
5100010, 0.072000, 2.012501
5100011, 0.080000, 2.012501
5100012, 0.088000, 2.012501
5100013, 0.096000, 2.012501
5100014, 0.104000, 2.012501
5100015, 0.112000, 2.012501
5100016, 0.120000, 2.012501
5100017, 0.128000, 2.012501
5100018, 0.136000, 2.012501
5100019, 0.144000, 2.012501
5100020, 0.152000, 2.012501
5100021, 0.160000, 2.012501
5100022, 0.168000, 2.012501
5100023, 0.176000, 2.012501
5100024, 0.184000, 2.012501
5100025, 0.192000, 2.012501
5100026, 0.200000, 2.012501
5100027, 0.208000, 2.012501
5100028, 0.216000, 2.012501
5100029, 0.224000, 2.012501
5100030, 0.232000, 2.012501
5100031, 0.240000, 2.012501
5100032, 0.248000, 2.012501
5100033, 0.257600, 2.012501
5100034, 0.269120, 2.012501
5100035, 0.282944, 2.012501
5100036, 0.299533, 2.012501
5100037, 0.319439, 2.012501
5100038, 0.343327, 2.012501
5100039, 0.371993, 2.012501
5100040, 0.406391, 2.012501
5100041, 0.447669, 2.012501
5100042, 0.497203, 2.012501
5100043, 0.556644, 2.012501
5100044, 0.627973, 2.012501
5100045, 0.713567, 2.012501
5100046, 0.816281, 2.012501
5100047, 0.939537, 2.012501
5100048, 1.087444, 2.012501
5100049, 1.264933, 2.012501
5100050, 1.477920, 2.012501
5100051, 1.733504, 2.012501
5100052, 2.000000, 2.012501
5200001, 0.000000, 2.032501
5200002, 0.008000, 2.032501
5200003, 0.016000, 2.032501
5200004, 0.024000, 2.032501
5200005, 0.032000, 2.032501
5200006, 0.040000, 2.032501
5200007, 0.048000, 2.032501
5200008, 0.056000, 2.032501
5200009, 0.064000, 2.032501
5200010, 0.072000, 2.032501
5200011, 0.080000, 2.032501
5200012, 0.088000, 2.032501
5200013, 0.096000, 2.032501
5200014, 0.104000, 2.032501
5200015, 0.112000, 2.032501
5200016, 0.120000, 2.032501
5200017, 0.128000, 2.032501
5200018, 0.136000, 2.032501
5200019, 0.144000, 2.032501
5200020, 0.152000, 2.032501
5200021, 0.160000, 2.032501
5200022, 0.168000, 2.032501
5200023, 0.176000, 2.032501
5200024, 0.184000, 2.032501
5200025, 0.192000, 2.032501
5200026, 0.200000, 2.032501
5200027, 0.208000, 2.032501
5200028, 0.216000, 2.032501
5200029, 0.224000, 2.032501
5200030, 0.232000, 2.032501
5200031, 0.240000, 2.032501
5200032, 0.248000, 2.032501
5200033, 0.257600, 2.032501
5200034, 0.269120, 2.032501
5200035, 0.282944, 2.032501
5200036, 0.299533, 2.032501
5200037, 0.319439, 2.032501
5200038, 0.343327, 2.032501
5200039, 0.371993, 2.032501
5200040, 0.406391, 2.032501
5200041, 0.447669, 2.032501
5200042, 0.497203, 2.032501
5200043, 0.556644, 2.032501
5200044, 0.627973, 2.032501
5200045, 0.713567, 2.032501
5200046, 0.816281, 2.032501
5200047, 0.939537, 2.032501
5200048, 1.087444, 2.032501
5200049, 1.264933, 2.032501
5200050, 1.477920, 2.032501
5200051, 1.733504, 2.032501
5200052, 2.000000, 2.032501
5300001, 0.000000, 2.052501
5300002, 0.008000, 2.052501
5300003, 0.016000, 2.052501
5300004, 0.024000, 2.052501
5300005, 0.032000, 2.052501
5300006, 0.040000, 2.052501
5300007, 0.048000, 2.052501
5300008, 0.056000, 2.052501
5300009, 0.064000, 2.052501
5300010, 0.072000, 2.052501
5300011, 0.080000, 2.052501
5300012, 0.088000, 2.052501
5300013, 0.096000, 2.052501
5300014, 0.104000, 2.052501
5300015, 0.112000, 2.052501
5300016, 0.120000, 2.052501
5300017, 0.128000, 2.052501
5300018, 0.136000, 2.052501
5300019, 0.144000, 2.052501
5300020, 0.152000, 2.052501
5300021, 0.160000, 2.052501
5300022, 0.168000, 2.052501
5300023, 0.176000, 2.052501
5300024, 0.184000, 2.052501
5300025, 0.192000, 2.052501
5300026, 0.200000, 2.052501
5300027, 0.208000, 2.052501
5300028, 0.216000, 2.052501
5300029, 0.224000, 2.052501
5300030, 0.232000, 2.052501
5300031, 0.240000, 2.052501
5300032, 0.248000, 2.052501
5300033, 0.257600, 2.052501
5300034, 0.269120, 2.052501
5300035, 0.282944, 2.052501
5300036, 0.299533, 2.052501
5300037, 0.319439, 2.052501
5300038, 0.343327, 2.052501
5300039, 0.371993, 2.052501
5300040, 0.406391, 2.052501
5300041, 0.447669, 2.052501
5300042, 0.497203, 2.052501
5300043, 0.556644, 2.052501
5300044, 0.627973, 2.052501
5300045, 0.713567, 2.052501
5300046, 0.816281, 2.052501
5300047, 0.939537, 2.052501
5300048, 1.087444, 2.052501
5300049, 1.264933, 2.052501
5300050, 1.477920, 2.052501
5300051, 1.733504, 2.052501
5300052, 2.000000, 2.052501
5400001, 0.000000, 2.072501
5400002, 0.008000, 2.072501
5400003, 0.016000, 2.072501
5400004, 0.024000, 2.072501
5400005, 0.032000, 2.072501
5400006, 0.040000, 2.072501
5400007, 0.048000, 2.072501
5400008, 0.056000, 2.072501
5400009, 0.064000, 2.072501
5400010, 0.072000, 2.072501
5400011, 0.080000, 2.072501
5400012, 0.088000, 2.072501
5400013, 0.096000, 2.072501
5400014, 0.104000, 2.072501
5400015, 0.112000, 2.072501
5400016, 0.120000, 2.072501
5400017, 0.128000, 2.072501
5400018, 0.136000, 2.072501
5400019, 0.144000, 2.072501
5400020, 0.152000, 2.072501
5400021, 0.160000, 2.072501
5400022, 0.168000, 2.072501
5400023, 0.176000, 2.072501
5400024, 0.184000, 2.072501
5400025, 0.192000, 2.072501
5400026, 0.200000, 2.072501
5400027, 0.208000, 2.072501
5400028, 0.216000, 2.072501
5400029, 0.224000, 2.072501
5400030, 0.232000, 2.072501
5400031, 0.240000, 2.072501
5400032, 0.248000, 2.072501
5400033, 0.257600, 2.072501
5400034, 0.269120, 2.072501
5400035, 0.282944, 2.072501
5400036, 0.299533, 2.072501
5400037, 0.319439, 2.072501
5400038, 0.343327, 2.072501
5400039, 0.371993, 2.072501
5400040, 0.406391, 2.072501
5400041, 0.447669, 2.072501
5400042, 0.497203, 2.072501
5400043, 0.556644, 2.072501
5400044, 0.627973, 2.072501
5400045, 0.713567, 2.072501
5400046, 0.816281, 2.072501
5400047, 0.939537, 2.072501
5400048, 1.087444, 2.072501
5400049, 1.264933, 2.072501
5400050, 1.477920, 2.072501
5400051, 1.733504, 2.072501
5400052, 2.000000, 2.072501
5500001, 0.000000, 2.092501
5500002, 0.008000, 2.092501
5500003, 0.016000, 2.092501
5500004, 0.024000, 2.092501
5500005, 0.032000, 2.092501
5500006, 0.040000, 2.092501
5500007, 0.048000, 2.092501
5500008, 0.056000, 2.092501
5500009, 0.064000, 2.092501
5500010, 0.072000, 2.092501
5500011, 0.080000, 2.092501
5500012, 0.088000, 2.092501
5500013, 0.096000, 2.092501
5500014, 0.104000, 2.092501
5500015, 0.112000, 2.092501
5500016, 0.120000, 2.092501
5500017, 0.128000, 2.092501
5500018, 0.136000, 2.092501
5500019, 0.144000, 2.092501
5500020, 0.152000, 2.092501
5500021, 0.160000, 2.092501
5500022, 0.168000, 2.092501
5500023, 0.176000, 2.092501
5500024, 0.184000, 2.092501
5500025, 0.192000, 2.092501
5500026, 0.200000, 2.092501
5500027, 0.208000, 2.092501
5500028, 0.216000, 2.092501
5500029, 0.224000, 2.092501
5500030, 0.232000, 2.092501
5500031, 0.240000, 2.092501
5500032, 0.248000, 2.092501
5500033, 0.257600, 2.092501
5500034, 0.269120, 2.092501
5500035, 0.282944, 2.092501
5500036, 0.299533, 2.092501
5500037, 0.319439, 2.092501
5500038, 0.343327, 2.092501
5500039, 0.371993, 2.092501
5500040, 0.406391, 2.092501
5500041, 0.447669, 2.092501
5500042, 0.497203, 2.092501
5500043, 0.556644, 2.092501
5500044, 0.627973, 2.092501
5500045, 0.713567, 2.092501
5500046, 0.816281, 2.092501
5500047, 0.939537, 2.092501
5500048, 1.087444, 2.092501
5500049, 1.264933, 2.092501
5500050, 1.477920, 2.092501
5500051, 1.733504, 2.092501
5500052, 2.000000, 2.092501
5600001, 0.000000, 2.112501
5600002, 0.008000, 2.112501
5600003, 0.016000, 2.112501
5600004, 0.024000, 2.112501
5600005, 0.032000, 2.112501
5600006, 0.040000, 2.112501
5600007, 0.048000, 2.112501
5600008, 0.056000, 2.112501
5600009, 0.064000, 2.112501
5600010, 0.072000, 2.112501
5600011, 0.080000, 2.112501
5600012, 0.088000, 2.112501
5600013, 0.096000, 2.112501
5600014, 0.104000, 2.112501
5600015, 0.112000, 2.112501
5600016, 0.120000, 2.112501
5600017, 0.128000, 2.112501
5600018, 0.136000, 2.112501
5600019, 0.144000, 2.112501
5600020, 0.152000, 2.112501
5600021, 0.160000, 2.112501
5600022, 0.168000, 2.112501
5600023, 0.176000, 2.112501
5600024, 0.184000, 2.112501
5600025, 0.192000, 2.112501
5600026, 0.200000, 2.112501
5600027, 0.208000, 2.112501
5600028, 0.216000, 2.112501
5600029, 0.224000, 2.112501
5600030, 0.232000, 2.112501
5600031, 0.240000, 2.112501
5600032, 0.248000, 2.112501
5600033, 0.257600, 2.112501
5600034, 0.269120, 2.112501
5600035, 0.282944, 2.112501
5600036, 0.299533, 2.112501
5600037, 0.319439, 2.112501
5600038, 0.343327, 2.112501
5600039, 0.371993, 2.112501
5600040, 0.406391, 2.112501
5600041, 0.447669, 2.112501
5600042, 0.497203, 2.112501
5600043, 0.556644, 2.112501
5600044, 0.627973, 2.112501
5600045, 0.713567, 2.112501
5600046, 0.816281, 2.112501
5600047, 0.939537, 2.112501
5600048, 1.087444, 2.112501
5600049, 1.264933, 2.112501
5600050, 1.477920, 2.112501
5600051, 1.733504, 2.112501
5600052, 2.000000, 2.112501
5700001, 0.000000, 2.132501
5700002, 0.008000, 2.132501
5700003, 0.016000, 2.132501
5700004, 0.024000, 2.132501
5700005, 0.032000, 2.132501
5700006, 0.040000, 2.132501
5700007, 0.048000, 2.132501
5700008, 0.056000, 2.132501
5700009, 0.064000, 2.132501
5700010, 0.072000, 2.132501
5700011, 0.080000, 2.132501
5700012, 0.088000, 2.132501
5700013, 0.096000, 2.132501
5700014, 0.104000, 2.132501
5700015, 0.112000, 2.132501
5700016, 0.120000, 2.132501
5700017, 0.128000, 2.132501
5700018, 0.136000, 2.132501
5700019, 0.144000, 2.132501
5700020, 0.152000, 2.132501
5700021, 0.160000, 2.132501
5700022, 0.168000, 2.132501
5700023, 0.176000, 2.132501
5700024, 0.184000, 2.132501
5700025, 0.192000, 2.132501
5700026, 0.200000, 2.132501
5700027, 0.208000, 2.132501
5700028, 0.216000, 2.132501
5700029, 0.224000, 2.132501
5700030, 0.232000, 2.132501
5700031, 0.240000, 2.132501
5700032, 0.248000, 2.132501
5700033, 0.257600, 2.132501
5700034, 0.269120, 2.132501
5700035, 0.282944, 2.132501
5700036, 0.299533, 2.132501
5700037, 0.319439, 2.132501
5700038, 0.343327, 2.132501
5700039, 0.371993, 2.132501
5700040, 0.406391, 2.132501
5700041, 0.447669, 2.132501
5700042, 0.497203, 2.132501
5700043, 0.556644, 2.132501
5700044, 0.627973, 2.132501
5700045, 0.713567, 2.132501
5700046, 0.816281, 2.132501
5700047, 0.939537, 2.132501
5700048, 1.087444, 2.132501
5700049, 1.264933, 2.132501
5700050, 1.477920, 2.132501
5700051, 1.733504, 2.132501
5700052, 2.000000, 2.132501
5800001, 0.000000, 2.152501
5800002, 0.008000, 2.152501
5800003, 0.016000, 2.152501
5800004, 0.024000, 2.152501
5800005, 0.032000, 2.152501
5800006, 0.040000, 2.152501
5800007, 0.048000, 2.152501
5800008, 0.056000, 2.152501
5800009, 0.064000, 2.152501
5800010, 0.072000, 2.152501
5800011, 0.080000, 2.152501
5800012, 0.088000, 2.152501
5800013, 0.096000, 2.152501
5800014, 0.104000, 2.152501
5800015, 0.112000, 2.152501
5800016, 0.120000, 2.152501
5800017, 0.128000, 2.152501
5800018, 0.136000, 2.152501
5800019, 0.144000, 2.152501
5800020, 0.152000, 2.152501
5800021, 0.160000, 2.152501
5800022, 0.168000, 2.152501
5800023, 0.176000, 2.152501
5800024, 0.184000, 2.152501
5800025, 0.192000, 2.152501
5800026, 0.200000, 2.152501
5800027, 0.208000, 2.152501
5800028, 0.216000, 2.152501
5800029, 0.224000, 2.152501
5800030, 0.232000, 2.152501
5800031, 0.240000, 2.152501
5800032, 0.248000, 2.152501
5800033, 0.257600, 2.152501
5800034, 0.269120, 2.152501
5800035, 0.282944, 2.152501
5800036, 0.299533, 2.152501
5800037, 0.319439, 2.152501
5800038, 0.343327, 2.152501
5800039, 0.371993, 2.152501
5800040, 0.406391, 2.152501
5800041, 0.447669, 2.152501
5800042, 0.497203, 2.152501
5800043, 0.556644, 2.152501
5800044, 0.627973, 2.152501
5800045, 0.713567, 2.152501
5800046, 0.816281, 2.152501
5800047, 0.939537, 2.152501
5800048, 1.087444, 2.152501
5800049, 1.264933, 2.152501
5800050, 1.477920, 2.152501
5800051, 1.733504, 2.152501
5800052, 2.000000, 2.152501
5900001, 0.000000, 2.172501
5900002, 0.008000, 2.172501
5900003, 0.016000, 2.172501
5900004, 0.024000, 2.172501
5900005, 0.032000, 2.172501
5900006, 0.040000, 2.172501
5900007, 0.048000, 2.172501
5900008, 0.056000, 2.172501
5900009, 0.064000, 2.172501
5900010, 0.072000, 2.172501
5900011, 0.080000, 2.172501
5900012, 0.088000, 2.172501
5900013, 0.096000, 2.172501
5900014, 0.104000, 2.172501
5900015, 0.112000, 2.172501
5900016, 0.120000, 2.172501
5900017, 0.128000, 2.172501
5900018, 0.136000, 2.172501
5900019, 0.144000, 2.172501
5900020, 0.152000, 2.172501
5900021, 0.160000, 2.172501
5900022, 0.168000, 2.172501
5900023, 0.176000, 2.172501
5900024, 0.184000, 2.172501
5900025, 0.192000, 2.172501
5900026, 0.200000, 2.172501
5900027, 0.208000, 2.172501
5900028, 0.216000, 2.172501
5900029, 0.224000, 2.172501
5900030, 0.232000, 2.172501
5900031, 0.240000, 2.172501
5900032, 0.248000, 2.172501
5900033, 0.257600, 2.172501
5900034, 0.269120, 2.172501
5900035, 0.282944, 2.172501
5900036, 0.299533, 2.172501
5900037, 0.319439, 2.172501
5900038, 0.343327, 2.172501
5900039, 0.371993, 2.172501
5900040, 0.406391, 2.172501
5900041, 0.447669, 2.172501
5900042, 0.497203, 2.172501
5900043, 0.556644, 2.172501
5900044, 0.627973, 2.172501
5900045, 0.713567, 2.172501
5900046, 0.816281, 2.172501
5900047, 0.939537, 2.172501
5900048, 1.087444, 2.172501
5900049, 1.264933, 2.172501
5900050, 1.477920, 2.172501
5900051, 1.733504, 2.172501
5900052, 2.000000, 2.172501
6000001, 0.000000, 2.192501
6000002, 0.008000, 2.192501
6000003, 0.016000, 2.192501
6000004, 0.024000, 2.192501
6000005, 0.032000, 2.192501
6000006, 0.040000, 2.192501
6000007, 0.048000, 2.192501
6000008, 0.056000, 2.192501
6000009, 0.064000, 2.192501
6000010, 0.072000, 2.192501
6000011, 0.080000, 2.192501
6000012, 0.088000, 2.192501
6000013, 0.096000, 2.192501
6000014, 0.104000, 2.192501
6000015, 0.112000, 2.192501
6000016, 0.120000, 2.192501
6000017, 0.128000, 2.192501
6000018, 0.136000, 2.192501
6000019, 0.144000, 2.192501
6000020, 0.152000, 2.192501
6000021, 0.160000, 2.192501
6000022, 0.168000, 2.192501
6000023, 0.176000, 2.192501
6000024, 0.184000, 2.192501
6000025, 0.192000, 2.192501
6000026, 0.200000, 2.192501
6000027, 0.208000, 2.192501
6000028, 0.216000, 2.192501
6000029, 0.224000, 2.192501
6000030, 0.232000, 2.192501
6000031, 0.240000, 2.192501
6000032, 0.248000, 2.192501
6000033, 0.257600, 2.192501
6000034, 0.269120, 2.192501
6000035, 0.282944, 2.192501
6000036, 0.299533, 2.192501
6000037, 0.319439, 2.192501
6000038, 0.343327, 2.192501
6000039, 0.371993, 2.192501
6000040, 0.406391, 2.192501
6000041, 0.447669, 2.192501
6000042, 0.497203, 2.192501
6000043, 0.556644, 2.192501
6000044, 0.627973, 2.192501
6000045, 0.713567, 2.192501
6000046, 0.816281, 2.192501
6000047, 0.939537, 2.192501
6000048, 1.087444, 2.192501
6000049, 1.264933, 2.192501
6000050, 1.477920, 2.192501
6000051, 1.733504, 2.192501
6000052, 2.000000, 2.192501
6100001, 0.000000, 2.212501
6100002, 0.008000, 2.212501
6100003, 0.016000, 2.212501
6100004, 0.024000, 2.212501
6100005, 0.032000, 2.212501
6100006, 0.040000, 2.212501
6100007, 0.048000, 2.212501
6100008, 0.056000, 2.212501
6100009, 0.064000, 2.212501
6100010, 0.072000, 2.212501
6100011, 0.080000, 2.212501
6100012, 0.088000, 2.212501
6100013, 0.096000, 2.212501
6100014, 0.104000, 2.212501
6100015, 0.112000, 2.212501
6100016, 0.120000, 2.212501
6100017, 0.128000, 2.212501
6100018, 0.136000, 2.212501
6100019, 0.144000, 2.212501
6100020, 0.152000, 2.212501
6100021, 0.160000, 2.212501
6100022, 0.168000, 2.212501
6100023, 0.176000, 2.212501
6100024, 0.184000, 2.212501
6100025, 0.192000, 2.212501
6100026, 0.200000, 2.212501
6100027, 0.208000, 2.212501
6100028, 0.216000, 2.212501
6100029, 0.224000, 2.212501
6100030, 0.232000, 2.212501
6100031, 0.240000, 2.212501
6100032, 0.248000, 2.212501
6100033, 0.257600, 2.212501
6100034, 0.269120, 2.212501
6100035, 0.282944, 2.212501
6100036, 0.299533, 2.212501
6100037, 0.319439, 2.212501
6100038, 0.343327, 2.212501
6100039, 0.371993, 2.212501
6100040, 0.406391, 2.212501
6100041, 0.447669, 2.212501
6100042, 0.497203, 2.212501
6100043, 0.556644, 2.212501
6100044, 0.627973, 2.212501
6100045, 0.713567, 2.212501
6100046, 0.816281, 2.212501
6100047, 0.939537, 2.212501
6100048, 1.087444, 2.212501
6100049, 1.264933, 2.212501
6100050, 1.477920, 2.212501
6100051, 1.733504, 2.212501
6100052, 2.000000, 2.212501
6200001, 0.000000, 2.232501
6200002, 0.008000, 2.232501
6200003, 0.016000, 2.232501
6200004, 0.024000, 2.232501
6200005, 0.032000, 2.232501
6200006, 0.040000, 2.232501
6200007, 0.048000, 2.232501
6200008, 0.056000, 2.232501
6200009, 0.064000, 2.232501
6200010, 0.072000, 2.232501
6200011, 0.080000, 2.232501
6200012, 0.088000, 2.232501
6200013, 0.096000, 2.232501
6200014, 0.104000, 2.232501
6200015, 0.112000, 2.232501
6200016, 0.120000, 2.232501
6200017, 0.128000, 2.232501
6200018, 0.136000, 2.232501
6200019, 0.144000, 2.232501
6200020, 0.152000, 2.232501
6200021, 0.160000, 2.232501
6200022, 0.168000, 2.232501
6200023, 0.176000, 2.232501
6200024, 0.184000, 2.232501
6200025, 0.192000, 2.232501
6200026, 0.200000, 2.232501
6200027, 0.208000, 2.232501
6200028, 0.216000, 2.232501
6200029, 0.224000, 2.232501
6200030, 0.232000, 2.232501
6200031, 0.240000, 2.232501
6200032, 0.248000, 2.232501
6200033, 0.257600, 2.232501
6200034, 0.269120, 2.232501
6200035, 0.282944, 2.232501
6200036, 0.299533, 2.232501
6200037, 0.319439, 2.232501
6200038, 0.343327, 2.232501
6200039, 0.371993, 2.232501
6200040, 0.406391, 2.232501
6200041, 0.447669, 2.232501
6200042, 0.497203, 2.232501
6200043, 0.556644, 2.232501
6200044, 0.627973, 2.232501
6200045, 0.713567, 2.232501
6200046, 0.816281, 2.232501
6200047, 0.939537, 2.232501
6200048, 1.087444, 2.232501
6200049, 1.264933, 2.232501
6200050, 1.477920, 2.232501
6200051, 1.733504, 2.232501
6200052, 2.000000, 2.232501
6300001, 0.000000, 2.252501
6300002, 0.008000, 2.252501
6300003, 0.016000, 2.252501
6300004, 0.024000, 2.252501
6300005, 0.032000, 2.252501
6300006, 0.040000, 2.252501
6300007, 0.048000, 2.252501
6300008, 0.056000, 2.252501
6300009, 0.064000, 2.252501
6300010, 0.072000, 2.252501
6300011, 0.080000, 2.252501
6300012, 0.088000, 2.252501
6300013, 0.096000, 2.252501
6300014, 0.104000, 2.252501
6300015, 0.112000, 2.252501
6300016, 0.120000, 2.252501
6300017, 0.128000, 2.252501
6300018, 0.136000, 2.252501
6300019, 0.144000, 2.252501
6300020, 0.152000, 2.252501
6300021, 0.160000, 2.252501
6300022, 0.168000, 2.252501
6300023, 0.176000, 2.252501
6300024, 0.184000, 2.252501
6300025, 0.192000, 2.252501
6300026, 0.200000, 2.252501
6300027, 0.208000, 2.252501
6300028, 0.216000, 2.252501
6300029, 0.224000, 2.252501
6300030, 0.232000, 2.252501
6300031, 0.240000, 2.252501
6300032, 0.248000, 2.252501
6300033, 0.257600, 2.252501
6300034, 0.269120, 2.252501
6300035, 0.282944, 2.252501
6300036, 0.299533, 2.252501
6300037, 0.319439, 2.252501
6300038, 0.343327, 2.252501
6300039, 0.371993, 2.252501
6300040, 0.406391, 2.252501
6300041, 0.447669, 2.252501
6300042, 0.497203, 2.252501
6300043, 0.556644, 2.252501
6300044, 0.627973, 2.252501
6300045, 0.713567, 2.252501
6300046, 0.816281, 2.252501
6300047, 0.939537, 2.252501
6300048, 1.087444, 2.252501
6300049, 1.264933, 2.252501
6300050, 1.477920, 2.252501
6300051, 1.733504, 2.252501
6300052, 2.000000, 2.252501
6400001, 0.000000, 2.272501
6400002, 0.008000, 2.272501
6400003, 0.016000, 2.272501
6400004, 0.024000, 2.272501
6400005, 0.032000, 2.272501
6400006, 0.040000, 2.272501
6400007, 0.048000, 2.272501
6400008, 0.056000, 2.272501
6400009, 0.064000, 2.272501
6400010, 0.072000, 2.272501
6400011, 0.080000, 2.272501
6400012, 0.088000, 2.272501
6400013, 0.096000, 2.272501
6400014, 0.104000, 2.272501
6400015, 0.112000, 2.272501
6400016, 0.120000, 2.272501
6400017, 0.128000, 2.272501
6400018, 0.136000, 2.272501
6400019, 0.144000, 2.272501
6400020, 0.152000, 2.272501
6400021, 0.160000, 2.272501
6400022, 0.168000, 2.272501
6400023, 0.176000, 2.272501
6400024, 0.184000, 2.272501
6400025, 0.192000, 2.272501
6400026, 0.200000, 2.272501
6400027, 0.208000, 2.272501
6400028, 0.216000, 2.272501
6400029, 0.224000, 2.272501
6400030, 0.232000, 2.272501
6400031, 0.240000, 2.272501
6400032, 0.248000, 2.272501
6400033, 0.257600, 2.272501
6400034, 0.269120, 2.272501
6400035, 0.282944, 2.272501
6400036, 0.299533, 2.272501
6400037, 0.319439, 2.272501
6400038, 0.343327, 2.272501
6400039, 0.371993, 2.272501
6400040, 0.406391, 2.272501
6400041, 0.447669, 2.272501
6400042, 0.497203, 2.272501
6400043, 0.556644, 2.272501
6400044, 0.627973, 2.272501
6400045, 0.713567, 2.272501
6400046, 0.816281, 2.272501
6400047, 0.939537, 2.272501
6400048, 1.087444, 2.272501
6400049, 1.264933, 2.272501
6400050, 1.477920, 2.272501
6400051, 1.733504, 2.272501
6400052, 2.000000, 2.272501
6500001, 0.000000, 2.292501
6500002, 0.008000, 2.292501
6500003, 0.016000, 2.292501
6500004, 0.024000, 2.292501
6500005, 0.032000, 2.292501
6500006, 0.040000, 2.292501
6500007, 0.048000, 2.292501
6500008, 0.056000, 2.292501
6500009, 0.064000, 2.292501
6500010, 0.072000, 2.292501
6500011, 0.080000, 2.292501
6500012, 0.088000, 2.292501
6500013, 0.096000, 2.292501
6500014, 0.104000, 2.292501
6500015, 0.112000, 2.292501
6500016, 0.120000, 2.292501
6500017, 0.128000, 2.292501
6500018, 0.136000, 2.292501
6500019, 0.144000, 2.292501
6500020, 0.152000, 2.292501
6500021, 0.160000, 2.292501
6500022, 0.168000, 2.292501
6500023, 0.176000, 2.292501
6500024, 0.184000, 2.292501
6500025, 0.192000, 2.292501
6500026, 0.200000, 2.292501
6500027, 0.208000, 2.292501
6500028, 0.216000, 2.292501
6500029, 0.224000, 2.292501
6500030, 0.232000, 2.292501
6500031, 0.240000, 2.292501
6500032, 0.248000, 2.292501
6500033, 0.257600, 2.292501
6500034, 0.269120, 2.292501
6500035, 0.282944, 2.292501
6500036, 0.299533, 2.292501
6500037, 0.319439, 2.292501
6500038, 0.343327, 2.292501
6500039, 0.371993, 2.292501
6500040, 0.406391, 2.292501
6500041, 0.447669, 2.292501
6500042, 0.497203, 2.292501
6500043, 0.556644, 2.292501
6500044, 0.627973, 2.292501
6500045, 0.713567, 2.292501
6500046, 0.816281, 2.292501
6500047, 0.939537, 2.292501
6500048, 1.087444, 2.292501
6500049, 1.264933, 2.292501
6500050, 1.477920, 2.292501
6500051, 1.733504, 2.292501
6500052, 2.000000, 2.292501
6600001, 0.000000, 2.312501
6600002, 0.008000, 2.312501
6600003, 0.016000, 2.312501
6600004, 0.024000, 2.312501
6600005, 0.032000, 2.312501
6600006, 0.040000, 2.312501
6600007, 0.048000, 2.312501
6600008, 0.056000, 2.312501
6600009, 0.064000, 2.312501
6600010, 0.072000, 2.312501
6600011, 0.080000, 2.312501
6600012, 0.088000, 2.312501
6600013, 0.096000, 2.312501
6600014, 0.104000, 2.312501
6600015, 0.112000, 2.312501
6600016, 0.120000, 2.312501
6600017, 0.128000, 2.312501
6600018, 0.136000, 2.312501
6600019, 0.144000, 2.312501
6600020, 0.152000, 2.312501
6600021, 0.160000, 2.312501
6600022, 0.168000, 2.312501
6600023, 0.176000, 2.312501
6600024, 0.184000, 2.312501
6600025, 0.192000, 2.312501
6600026, 0.200000, 2.312501
6600027, 0.208000, 2.312501
6600028, 0.216000, 2.312501
6600029, 0.224000, 2.312501
6600030, 0.232000, 2.312501
6600031, 0.240000, 2.312501
6600032, 0.248000, 2.312501
6600033, 0.257600, 2.312501
6600034, 0.269120, 2.312501
6600035, 0.282944, 2.312501
6600036, 0.299533, 2.312501
6600037, 0.319439, 2.312501
6600038, 0.343327, 2.312501
6600039, 0.371993, 2.312501
6600040, 0.406391, 2.312501
6600041, 0.447669, 2.312501
6600042, 0.497203, 2.312501
6600043, 0.556644, 2.312501
6600044, 0.627973, 2.312501
6600045, 0.713567, 2.312501
6600046, 0.816281, 2.312501
6600047, 0.939537, 2.312501
6600048, 1.087444, 2.312501
6600049, 1.264933, 2.312501
6600050, 1.477920, 2.312501
6600051, 1.733504, 2.312501
6600052, 2.000000, 2.312501
6700001, 0.000000, 2.332501
6700002, 0.008000, 2.332501
6700003, 0.016000, 2.332501
6700004, 0.024000, 2.332501
6700005, 0.032000, 2.332501
6700006, 0.040000, 2.332501
6700007, 0.048000, 2.332501
6700008, 0.056000, 2.332501
6700009, 0.064000, 2.332501
6700010, 0.072000, 2.332501
6700011, 0.080000, 2.332501
6700012, 0.088000, 2.332501
6700013, 0.096000, 2.332501
6700014, 0.104000, 2.332501
6700015, 0.112000, 2.332501
6700016, 0.120000, 2.332501
6700017, 0.128000, 2.332501
6700018, 0.136000, 2.332501
6700019, 0.144000, 2.332501
6700020, 0.152000, 2.332501
6700021, 0.160000, 2.332501
6700022, 0.168000, 2.332501
6700023, 0.176000, 2.332501
6700024, 0.184000, 2.332501
6700025, 0.192000, 2.332501
6700026, 0.200000, 2.332501
6700027, 0.208000, 2.332501
6700028, 0.216000, 2.332501
6700029, 0.224000, 2.332501
6700030, 0.232000, 2.332501
6700031, 0.240000, 2.332501
6700032, 0.248000, 2.332501
6700033, 0.257600, 2.332501
6700034, 0.269120, 2.332501
6700035, 0.282944, 2.332501
6700036, 0.299533, 2.332501
6700037, 0.319439, 2.332501
6700038, 0.343327, 2.332501
6700039, 0.371993, 2.332501
6700040, 0.406391, 2.332501
6700041, 0.447669, 2.332501
6700042, 0.497203, 2.332501
6700043, 0.556644, 2.332501
6700044, 0.627973, 2.332501
6700045, 0.713567, 2.332501
6700046, 0.816281, 2.332501
6700047, 0.939537, 2.332501
6700048, 1.087444, 2.332501
6700049, 1.264933, 2.332501
6700050, 1.477920, 2.332501
6700051, 1.733504, 2.332501
6700052, 2.000000, 2.332501
6800001, 0.000000, 2.352501
6800002, 0.008000, 2.352501
6800003, 0.016000, 2.352501
6800004, 0.024000, 2.352501
6800005, 0.032000, 2.352501
6800006, 0.040000, 2.352501
6800007, 0.048000, 2.352501
6800008, 0.056000, 2.352501
6800009, 0.064000, 2.352501
6800010, 0.072000, 2.352501
6800011, 0.080000, 2.352501
6800012, 0.088000, 2.352501
6800013, 0.096000, 2.352501
6800014, 0.104000, 2.352501
6800015, 0.112000, 2.352501
6800016, 0.120000, 2.352501
6800017, 0.128000, 2.352501
6800018, 0.136000, 2.352501
6800019, 0.144000, 2.352501
6800020, 0.152000, 2.352501
6800021, 0.160000, 2.352501
6800022, 0.168000, 2.352501
6800023, 0.176000, 2.352501
6800024, 0.184000, 2.352501
6800025, 0.192000, 2.352501
6800026, 0.200000, 2.352501
6800027, 0.208000, 2.352501
6800028, 0.216000, 2.352501
6800029, 0.224000, 2.352501
6800030, 0.232000, 2.352501
6800031, 0.240000, 2.352501
6800032, 0.248000, 2.352501
6800033, 0.257600, 2.352501
6800034, 0.269120, 2.352501
6800035, 0.282944, 2.352501
6800036, 0.299533, 2.352501
6800037, 0.319439, 2.352501
6800038, 0.343327, 2.352501
6800039, 0.371993, 2.352501
6800040, 0.406391, 2.352501
6800041, 0.447669, 2.352501
6800042, 0.497203, 2.352501
6800043, 0.556644, 2.352501
6800044, 0.627973, 2.352501
6800045, 0.713567, 2.352501
6800046, 0.816281, 2.352501
6800047, 0.939537, 2.352501
6800048, 1.087444, 2.352501
6800049, 1.264933, 2.352501
6800050, 1.477920, 2.352501
6800051, 1.733504, 2.352501
6800052, 2.000000, 2.352501
6900001, 0.000000, 2.372501
6900002, 0.008000, 2.372501
6900003, 0.016000, 2.372501
6900004, 0.024000, 2.372501
6900005, 0.032000, 2.372501
6900006, 0.040000, 2.372501
6900007, 0.048000, 2.372501
6900008, 0.056000, 2.372501
6900009, 0.064000, 2.372501
6900010, 0.072000, 2.372501
6900011, 0.080000, 2.372501
6900012, 0.088000, 2.372501
6900013, 0.096000, 2.372501
6900014, 0.104000, 2.372501
6900015, 0.112000, 2.372501
6900016, 0.120000, 2.372501
6900017, 0.128000, 2.372501
6900018, 0.136000, 2.372501
6900019, 0.144000, 2.372501
6900020, 0.152000, 2.372501
6900021, 0.160000, 2.372501
6900022, 0.168000, 2.372501
6900023, 0.176000, 2.372501
6900024, 0.184000, 2.372501
6900025, 0.192000, 2.372501
6900026, 0.200000, 2.372501
6900027, 0.208000, 2.372501
6900028, 0.216000, 2.372501
6900029, 0.224000, 2.372501
6900030, 0.232000, 2.372501
6900031, 0.240000, 2.372501
6900032, 0.248000, 2.372501
6900033, 0.257600, 2.372501
6900034, 0.269120, 2.372501
6900035, 0.282944, 2.372501
6900036, 0.299533, 2.372501
6900037, 0.319439, 2.372501
6900038, 0.343327, 2.372501
6900039, 0.371993, 2.372501
6900040, 0.406391, 2.372501
6900041, 0.447669, 2.372501
6900042, 0.497203, 2.372501
6900043, 0.556644, 2.372501
6900044, 0.627973, 2.372501
6900045, 0.713567, 2.372501
6900046, 0.816281, 2.372501
6900047, 0.939537, 2.372501
6900048, 1.087444, 2.372501
6900049, 1.264933, 2.372501
6900050, 1.477920, 2.372501
6900051, 1.733504, 2.372501
6900052, 2.000000, 2.372501
7000001, 0.000000, 2.391364
7000002, 0.008000, 2.391364
7000003, 0.016000, 2.391364
7000004, 0.024000, 2.391364
7000005, 0.032000, 2.391364
7000006, 0.040000, 2.391364
7000007, 0.048000, 2.391364
7000008, 0.056000, 2.391364
7000009, 0.064000, 2.391364
7000010, 0.072000, 2.391364
7000011, 0.080000, 2.391364
7000012, 0.088000, 2.391364
7000013, 0.096000, 2.391364
7000014, 0.104000, 2.391364
7000015, 0.112000, 2.391364
7000016, 0.120000, 2.391364
7000017, 0.128000, 2.391364
7000018, 0.136000, 2.391364
7000019, 0.144000, 2.391364
7000020, 0.152000, 2.391364
7000021, 0.160000, 2.391364
7000022, 0.168000, 2.391364
7000023, 0.176000, 2.391364
7000024, 0.184000, 2.391364
7000025, 0.192000, 2.391364
7000026, 0.200000, 2.391364
7000027, 0.208000, 2.391364
7000028, 0.216000, 2.391364
7000029, 0.224000, 2.391364
7000030, 0.232000, 2.391364
7000031, 0.240000, 2.391364
7000032, 0.248000, 2.391364
7000033, 0.257600, 2.391364
7000034, 0.269120, 2.391364
7000035, 0.282944, 2.391364
7000036, 0.299533, 2.391364
7000037, 0.319439, 2.391364
7000038, 0.343327, 2.391364
7000039, 0.371993, 2.391364
7000040, 0.406391, 2.391364
7000041, 0.447669, 2.391364
7000042, 0.497203, 2.391364
7000043, 0.556644, 2.391364
7000044, 0.627973, 2.391364
7000045, 0.713567, 2.391364
7000046, 0.816281, 2.391364
7000047, 0.939537, 2.391364
7000048, 1.087444, 2.391364
7000049, 1.264933, 2.391364
7000050, 1.477920, 2.391364
7000051, 1.733504, 2.391364
7000052, 2.000000, 2.391364
7100001, 0.000000, 2.400000
7100002, 0.008000, 2.400000
7100003, 0.016000, 2.400000
7100004, 0.024000, 2.400000
7100005, 0.032000, 2.400000
7100006, 0.040000, 2.400000
7100007, 0.048000, 2.400000
7100008, 0.056000, 2.400000
7100009, 0.064000, 2.400000
7100010, 0.072000, 2.400000
7100011, 0.080000, 2.400000
7100012, 0.088000, 2.400000
7100013, 0.096000, 2.400000
7100014, 0.104000, 2.400000
7100015, 0.112000, 2.400000
7100016, 0.120000, 2.400000
7100017, 0.128000, 2.400000
7100018, 0.136000, 2.400000
7100019, 0.144000, 2.400000
7100020, 0.152000, 2.400000
7100021, 0.160000, 2.400000
7100022, 0.168000, 2.400000
7100023, 0.176000, 2.400000
7100024, 0.184000, 2.400000
7100025, 0.192000, 2.400000
7100026, 0.200000, 2.400000
7100027, 0.208000, 2.400000
7100028, 0.216000, 2.400000
7100029, 0.224000, 2.400000
7100030, 0.232000, 2.400000
7100031, 0.240000, 2.400000
7100032, 0.248000, 2.400000
7100033, 0.257600, 2.400000
7100034, 0.269120, 2.400000
7100035, 0.282944, 2.400000
7100036, 0.299533, 2.400000
7100037, 0.319439, 2.400000
7100038, 0.343327, 2.400000
7100039, 0.371993, 2.400000
7100040, 0.406391, 2.400000
7100041, 0.447669, 2.400000
7100042, 0.497203, 2.400000
7100043, 0.556644, 2.400000
7100044, 0.627973, 2.400000
7100045, 0.713567, 2.400000
7100046, 0.816281, 2.400000
7100047, 0.939537, 2.400000
7100048, 1.087444, 2.400000
7100049, 1.264933, 2.400000
7100050, 1.477920, 2.400000
7100051, 1.733504, 2.400000
7100052, 2.000000, 2.400000
7200001, 0.000000, 2.408513
7200002, 0.008000, 2.408513
7200003, 0.016000, 2.408513
7200004, 0.024000, 2.408513
7200005, 0.032000, 2.408513
7200006, 0.040000, 2.408513
7200007, 0.048000, 2.408513
7200008, 0.056000, 2.408513
7200009, 0.064000, 2.408513
7200010, 0.072000, 2.408513
7200011, 0.080000, 2.408513
7200012, 0.088000, 2.408513
7200013, 0.096000, 2.408513
7200014, 0.104000, 2.408513
7200015, 0.112000, 2.408513
7200016, 0.120000, 2.408513
7200017, 0.128000, 2.408513
7200018, 0.136000, 2.408513
7200019, 0.144000, 2.408513
7200020, 0.152000, 2.408513
7200021, 0.160000, 2.408513
7200022, 0.168000, 2.408513
7200023, 0.176000, 2.408513
7200024, 0.184000, 2.408513
7200025, 0.192000, 2.408513
7200026, 0.200000, 2.408513
7200027, 0.208000, 2.408513
7200028, 0.216000, 2.408513
7200029, 0.224000, 2.408513
7200030, 0.232000, 2.408513
7200031, 0.240000, 2.408513
7200032, 0.248000, 2.408513
7200033, 0.257600, 2.408513
7200034, 0.269120, 2.408513
7200035, 0.282944, 2.408513
7200036, 0.299533, 2.408513
7200037, 0.319439, 2.408513
7200038, 0.343327, 2.408513
7200039, 0.371993, 2.408513
7200040, 0.406391, 2.408513
7200041, 0.447669, 2.408513
7200042, 0.497203, 2.408513
7200043, 0.556644, 2.408513
7200044, 0.627973, 2.408513
7200045, 0.713567, 2.408513
7200046, 0.816281, 2.408513
7200047, 0.939537, 2.408513
7200048, 1.087444, 2.408513
7200049, 1.264933, 2.408513
7200050, 1.477920, 2.408513
7200051, 1.733504, 2.408513
7200052, 2.000000, 2.408513
7300001, 0.000000, 2.424103
7300002, 0.008000, 2.424103
7300003, 0.016000, 2.424103
7300004, 0.024000, 2.424103
7300005, 0.032000, 2.424103
7300006, 0.040000, 2.424103
7300007, 0.048000, 2.424103
7300008, 0.056000, 2.424103
7300009, 0.064000, 2.424103
7300010, 0.072000, 2.424103
7300011, 0.080000, 2.424103
7300012, 0.088000, 2.424103
7300013, 0.096000, 2.424103
7300014, 0.104000, 2.424103
7300015, 0.112000, 2.424103
7300016, 0.120000, 2.424103
7300017, 0.128000, 2.424103
7300018, 0.136000, 2.424103
7300019, 0.144000, 2.424103
7300020, 0.152000, 2.424103
7300021, 0.160000, 2.424103
7300022, 0.168000, 2.424103
7300023, 0.176000, 2.424103
7300024, 0.184000, 2.424103
7300025, 0.192000, 2.424103
7300026, 0.200000, 2.424103
7300027, 0.208000, 2.424103
7300028, 0.216000, 2.424103
7300029, 0.224000, 2.424103
7300030, 0.232000, 2.424103
7300031, 0.240000, 2.424103
7300032, 0.248000, 2.424103
7300033, 0.257600, 2.424103
7300034, 0.269120, 2.424103
7300035, 0.282944, 2.424103
7300036, 0.299533, 2.424103
7300037, 0.319439, 2.424103
7300038, 0.343327, 2.424103
7300039, 0.371993, 2.424103
7300040, 0.406391, 2.424103
7300041, 0.447669, 2.424103
7300042, 0.497203, 2.424103
7300043, 0.556644, 2.424103
7300044, 0.627973, 2.424103
7300045, 0.713567, 2.424103
7300046, 0.816281, 2.424103
7300047, 0.939537, 2.424103
7300048, 1.087444, 2.424103
7300049, 1.264933, 2.424103
7300050, 1.477920, 2.424103
7300051, 1.733504, 2.424103
7300052, 2.000000, 2.424103
7400001, 0.000000, 2.438275
7400002, 0.008000, 2.438275
7400003, 0.016000, 2.438275
7400004, 0.024000, 2.438275
7400005, 0.032000, 2.438275
7400006, 0.040000, 2.438275
7400007, 0.048000, 2.438275
7400008, 0.056000, 2.438275
7400009, 0.064000, 2.438275
7400010, 0.072000, 2.438275
7400011, 0.080000, 2.438275
7400012, 0.088000, 2.438275
7400013, 0.096000, 2.438275
7400014, 0.104000, 2.438275
7400015, 0.112000, 2.438275
7400016, 0.120000, 2.438275
7400017, 0.128000, 2.438275
7400018, 0.136000, 2.438275
7400019, 0.144000, 2.438275
7400020, 0.152000, 2.438275
7400021, 0.160000, 2.438275
7400022, 0.168000, 2.438275
7400023, 0.176000, 2.438275
7400024, 0.184000, 2.438275
7400025, 0.192000, 2.438275
7400026, 0.200000, 2.438275
7400027, 0.208000, 2.438275
7400028, 0.216000, 2.438275
7400029, 0.224000, 2.438275
7400030, 0.232000, 2.438275
7400031, 0.240000, 2.438275
7400032, 0.248000, 2.438275
7400033, 0.257600, 2.438275
7400034, 0.269120, 2.438275
7400035, 0.282944, 2.438275
7400036, 0.299533, 2.438275
7400037, 0.319439, 2.438275
7400038, 0.343327, 2.438275
7400039, 0.371993, 2.438275
7400040, 0.406391, 2.438275
7400041, 0.447669, 2.438275
7400042, 0.497203, 2.438275
7400043, 0.556644, 2.438275
7400044, 0.627973, 2.438275
7400045, 0.713567, 2.438275
7400046, 0.816281, 2.438275
7400047, 0.939537, 2.438275
7400048, 1.087444, 2.438275
7400049, 1.264933, 2.438275
7400050, 1.477920, 2.438275
7400051, 1.733504, 2.438275
7400052, 2.000000, 2.438275
7500001, 0.000000, 2.451159
7500002, 0.008000, 2.451159
7500003, 0.016000, 2.451159
7500004, 0.024000, 2.451159
7500005, 0.032000, 2.451159
7500006, 0.040000, 2.451159
7500007, 0.048000, 2.451159
7500008, 0.056000, 2.451159
7500009, 0.064000, 2.451159
7500010, 0.072000, 2.451159
7500011, 0.080000, 2.451159
7500012, 0.088000, 2.451159
7500013, 0.096000, 2.451159
7500014, 0.104000, 2.451159
7500015, 0.112000, 2.451159
7500016, 0.120000, 2.451159
7500017, 0.128000, 2.451159
7500018, 0.136000, 2.451159
7500019, 0.144000, 2.451159
7500020, 0.152000, 2.451159
7500021, 0.160000, 2.451159
7500022, 0.168000, 2.451159
7500023, 0.176000, 2.451159
7500024, 0.184000, 2.451159
7500025, 0.192000, 2.451159
7500026, 0.200000, 2.451159
7500027, 0.208000, 2.451159
7500028, 0.216000, 2.451159
7500029, 0.224000, 2.451159
7500030, 0.232000, 2.451159
7500031, 0.240000, 2.451159
7500032, 0.248000, 2.451159
7500033, 0.257600, 2.451159
7500034, 0.269120, 2.451159
7500035, 0.282944, 2.451159
7500036, 0.299533, 2.451159
7500037, 0.319439, 2.451159
7500038, 0.343327, 2.451159
7500039, 0.371993, 2.451159
7500040, 0.406391, 2.451159
7500041, 0.447669, 2.451159
7500042, 0.497203, 2.451159
7500043, 0.556644, 2.451159
7500044, 0.627973, 2.451159
7500045, 0.713567, 2.451159
7500046, 0.816281, 2.451159
7500047, 0.939537, 2.451159
7500048, 1.087444, 2.451159
7500049, 1.264933, 2.451159
7500050, 1.477920, 2.451159
7500051, 1.733504, 2.451159
7500052, 2.000000, 2.451159
7600001, 0.000000, 2.462872
7600002, 0.008000, 2.462872
7600003, 0.016000, 2.462872
7600004, 0.024000, 2.462872
7600005, 0.032000, 2.462872
7600006, 0.040000, 2.462872
7600007, 0.048000, 2.462872
7600008, 0.056000, 2.462872
7600009, 0.064000, 2.462872
7600010, 0.072000, 2.462872
7600011, 0.080000, 2.462872
7600012, 0.088000, 2.462872
7600013, 0.096000, 2.462872
7600014, 0.104000, 2.462872
7600015, 0.112000, 2.462872
7600016, 0.120000, 2.462872
7600017, 0.128000, 2.462872
7600018, 0.136000, 2.462872
7600019, 0.144000, 2.462872
7600020, 0.152000, 2.462872
7600021, 0.160000, 2.462872
7600022, 0.168000, 2.462872
7600023, 0.176000, 2.462872
7600024, 0.184000, 2.462872
7600025, 0.192000, 2.462872
7600026, 0.200000, 2.462872
7600027, 0.208000, 2.462872
7600028, 0.216000, 2.462872
7600029, 0.224000, 2.462872
7600030, 0.232000, 2.462872
7600031, 0.240000, 2.462872
7600032, 0.248000, 2.462872
7600033, 0.257600, 2.462872
7600034, 0.269120, 2.462872
7600035, 0.282944, 2.462872
7600036, 0.299533, 2.462872
7600037, 0.319439, 2.462872
7600038, 0.343327, 2.462872
7600039, 0.371993, 2.462872
7600040, 0.406391, 2.462872
7600041, 0.447669, 2.462872
7600042, 0.497203, 2.462872
7600043, 0.556644, 2.462872
7600044, 0.627973, 2.462872
7600045, 0.713567, 2.462872
7600046, 0.816281, 2.462872
7600047, 0.939537, 2.462872
7600048, 1.087444, 2.462872
7600049, 1.264933, 2.462872
7600050, 1.477920, 2.462872
7600051, 1.733504, 2.462872
7600052, 2.000000, 2.462872
7700001, 0.000000, 2.473520
7700002, 0.008000, 2.473520
7700003, 0.016000, 2.473520
7700004, 0.024000, 2.473520
7700005, 0.032000, 2.473520
7700006, 0.040000, 2.473520
7700007, 0.048000, 2.473520
7700008, 0.056000, 2.473520
7700009, 0.064000, 2.473520
7700010, 0.072000, 2.473520
7700011, 0.080000, 2.473520
7700012, 0.088000, 2.473520
7700013, 0.096000, 2.473520
7700014, 0.104000, 2.473520
7700015, 0.112000, 2.473520
7700016, 0.120000, 2.473520
7700017, 0.128000, 2.473520
7700018, 0.136000, 2.473520
7700019, 0.144000, 2.473520
7700020, 0.152000, 2.473520
7700021, 0.160000, 2.473520
7700022, 0.168000, 2.473520
7700023, 0.176000, 2.473520
7700024, 0.184000, 2.473520
7700025, 0.192000, 2.473520
7700026, 0.200000, 2.473520
7700027, 0.208000, 2.473520
7700028, 0.216000, 2.473520
7700029, 0.224000, 2.473520
7700030, 0.232000, 2.473520
7700031, 0.240000, 2.473520
7700032, 0.248000, 2.473520
7700033, 0.257600, 2.473520
7700034, 0.269120, 2.473520
7700035, 0.282944, 2.473520
7700036, 0.299533, 2.473520
7700037, 0.319439, 2.473520
7700038, 0.343327, 2.473520
7700039, 0.371993, 2.473520
7700040, 0.406391, 2.473520
7700041, 0.447669, 2.473520
7700042, 0.497203, 2.473520
7700043, 0.556644, 2.473520
7700044, 0.627973, 2.473520
7700045, 0.713567, 2.473520
7700046, 0.816281, 2.473520
7700047, 0.939537, 2.473520
7700048, 1.087444, 2.473520
7700049, 1.264933, 2.473520
7700050, 1.477920, 2.473520
7700051, 1.733504, 2.473520
7700052, 2.000000, 2.473520
7800001, 0.000000, 2.483200
7800002, 0.008000, 2.483200
7800003, 0.016000, 2.483200
7800004, 0.024000, 2.483200
7800005, 0.032000, 2.483200
7800006, 0.040000, 2.483200
7800007, 0.048000, 2.483200
7800008, 0.056000, 2.483200
7800009, 0.064000, 2.483200
7800010, 0.072000, 2.483200
7800011, 0.080000, 2.483200
7800012, 0.088000, 2.483200
7800013, 0.096000, 2.483200
7800014, 0.104000, 2.483200
7800015, 0.112000, 2.483200
7800016, 0.120000, 2.483200
7800017, 0.128000, 2.483200
7800018, 0.136000, 2.483200
7800019, 0.144000, 2.483200
7800020, 0.152000, 2.483200
7800021, 0.160000, 2.483200
7800022, 0.168000, 2.483200
7800023, 0.176000, 2.483200
7800024, 0.184000, 2.483200
7800025, 0.192000, 2.483200
7800026, 0.200000, 2.483200
7800027, 0.208000, 2.483200
7800028, 0.216000, 2.483200
7800029, 0.224000, 2.483200
7800030, 0.232000, 2.483200
7800031, 0.240000, 2.483200
7800032, 0.248000, 2.483200
7800033, 0.257600, 2.483200
7800034, 0.269120, 2.483200
7800035, 0.282944, 2.483200
7800036, 0.299533, 2.483200
7800037, 0.319439, 2.483200
7800038, 0.343327, 2.483200
7800039, 0.371993, 2.483200
7800040, 0.406391, 2.483200
7800041, 0.447669, 2.483200
7800042, 0.497203, 2.483200
7800043, 0.556644, 2.483200
7800044, 0.627973, 2.483200
7800045, 0.713567, 2.483200
7800046, 0.816281, 2.483200
7800047, 0.939537, 2.483200
7800048, 1.087444, 2.483200
7800049, 1.264933, 2.483200
7800050, 1.477920, 2.483200
7800051, 1.733504, 2.483200
7800052, 2.000000, 2.483200
7900001, 0.000000, 2.492000
7900002, 0.008000, 2.492000
7900003, 0.016000, 2.492000
7900004, 0.024000, 2.492000
7900005, 0.032000, 2.492000
7900006, 0.040000, 2.492000
7900007, 0.048000, 2.492000
7900008, 0.056000, 2.492000
7900009, 0.064000, 2.492000
7900010, 0.072000, 2.492000
7900011, 0.080000, 2.492000
7900012, 0.088000, 2.492000
7900013, 0.096000, 2.492000
7900014, 0.104000, 2.492000
7900015, 0.112000, 2.492000
7900016, 0.120000, 2.492000
7900017, 0.128000, 2.492000
7900018, 0.136000, 2.492000
7900019, 0.144000, 2.492000
7900020, 0.152000, 2.492000
7900021, 0.160000, 2.492000
7900022, 0.168000, 2.492000
7900023, 0.176000, 2.492000
7900024, 0.184000, 2.492000
7900025, 0.192000, 2.492000
7900026, 0.200000, 2.492000
7900027, 0.208000, 2.492000
7900028, 0.216000, 2.492000
7900029, 0.224000, 2.492000
7900030, 0.232000, 2.492000
7900031, 0.240000, 2.492000
7900032, 0.248000, 2.492000
7900033, 0.257600, 2.492000
7900034, 0.269120, 2.492000
7900035, 0.282944, 2.492000
7900036, 0.299533, 2.492000
7900037, 0.319439, 2.492000
7900038, 0.343327, 2.492000
7900039, 0.371993, 2.492000
7900040, 0.406391, 2.492000
7900041, 0.447669, 2.492000
7900042, 0.497203, 2.492000
7900043, 0.556644, 2.492000
7900044, 0.627973, 2.492000
7900045, 0.713567, 2.492000
7900046, 0.816281, 2.492000
7900047, 0.939537, 2.492000
7900048, 1.087444, 2.492000
7900049, 1.264933, 2.492000
7900050, 1.477920, 2.492000
7900051, 1.733504, 2.492000
7900052, 2.000000, 2.492000
8000001, 0.000000, 2.500000
8000002, 0.008000, 2.500000
8000003, 0.016000, 2.500000
8000004, 0.024000, 2.500000
8000005, 0.032000, 2.500000
8000006, 0.040000, 2.500000
8000007, 0.048000, 2.500000
8000008, 0.056000, 2.500000
8000009, 0.064000, 2.500000
8000010, 0.072000, 2.500000
8000011, 0.080000, 2.500000
8000012, 0.088000, 2.500000
8000013, 0.096000, 2.500000
8000014, 0.104000, 2.500000
8000015, 0.112000, 2.500000
8000016, 0.120000, 2.500000
8000017, 0.128000, 2.500000
8000018, 0.136000, 2.500000
8000019, 0.144000, 2.500000
8000020, 0.152000, 2.500000
8000021, 0.160000, 2.500000
8000022, 0.168000, 2.500000
8000023, 0.176000, 2.500000
8000024, 0.184000, 2.500000
8000025, 0.192000, 2.500000
8000026, 0.200000, 2.500000
8000027, 0.208000, 2.500000
8000028, 0.216000, 2.500000
8000029, 0.224000, 2.500000
8000030, 0.232000, 2.500000
8000031, 0.240000, 2.500000
8000032, 0.248000, 2.500000
8000033, 0.257600, 2.500000
8000034, 0.269120, 2.500000
8000035, 0.282944, 2.500000
8000036, 0.299533, 2.500000
8000037, 0.319439, 2.500000
8000038, 0.343327, 2.500000
8000039, 0.371993, 2.500000
8000040, 0.406391, 2.500000
8000041, 0.447669, 2.500000
8000042, 0.497203, 2.500000
8000043, 0.556644, 2.500000
8000044, 0.627973, 2.500000
8000045, 0.713567, 2.500000
8000046, 0.816281, 2.500000
8000047, 0.939537, 2.500000
8000048, 1.087444, 2.500000
8000049, 1.264933, 2.500000
8000050, 1.477920, 2.500000
8000051, 1.733504, 2.500000
8000052, 2.000000, 2.500000
*ELEMENT, TYPE=CAX4R
1, 1, 2, 100002, 100001
2, 2, 3, 100003, 100002
3, 3, 4, 100004, 100003
4, 4, 5, 100005, 100004
5, 5, 6, 100006, 100005
6, 6, 7, 100007, 100006
7, 7, 8, 100008, 100007
8, 8, 9, 100009, 100008
9, 9, 10, 100010, 100009
10, 10, 11, 100011, 100010
11, 11, 12, 100012, 100011
12, 12, 13, 100013, 100012
13, 13, 14, 100014, 100013
14, 14, 15, 100015, 100014
15, 15, 16, 100016, 100015
16, 16, 17, 100017, 100016
17, 17, 18, 100018, 100017
18, 18, 19, 100019, 100018
19, 19, 20, 100020, 100019
20, 20, 21, 100021, 100020
21, 21, 22, 100022, 100021
22, 22, 23, 100023, 100022
23, 23, 24, 100024, 100023
24, 24, 25, 100025, 100024
25, 25, 26, 100026, 100025
26, 26, 27, 100027, 100026
27, 27, 28, 100028, 100027
28, 28, 29, 100029, 100028
29, 29, 30, 100030, 100029
30, 30, 31, 100031, 100030
31, 31, 32, 100032, 100031
32, 32, 33, 100033, 100032
33, 33, 34, 100034, 100033
34, 34, 35, 100035, 100034
35, 35, 36, 100036, 100035
36, 36, 37, 100037, 100036
37, 37, 38, 100038, 100037
38, 38, 39, 100039, 100038
39, 39, 40, 100040, 100039
40, 40, 41, 100041, 100040
41, 41, 42, 100042, 100041
42, 42, 43, 100043, 100042
43, 43, 44, 100044, 100043
44, 44, 45, 100045, 100044
45, 45, 46, 100046, 100045
46, 46, 47, 100047, 100046
47, 47, 48, 100048, 100047
48, 48, 49, 100049, 100048
49, 49, 50, 100050, 100049
50, 50, 51, 100051, 100050
51, 51, 52, 100052, 100051
52, 100001, 100002, 200002, 200001
53, 100002, 100003, 200003, 200002
54, 100003, 100004, 200004, 200003
55, 100004, 100005, 200005, 200004
56, 100005, 100006, 200006, 200005
57, 100006, 100007, 200007, 200006
58, 100007, 100008, 200008, 200007
59, 100008, 100009, 200009, 200008
60, 100009, 100010, 200010, 200009
61, 100010, 100011, 200011, 200010
62, 100011, 100012, 200012, 200011
63, 100012, 100013, 200013, 200012
64, 100013, 100014, 200014, 200013
65, 100014, 100015, 200015, 200014
66, 100015, 100016, 200016, 200015
67, 100016, 100017, 200017, 200016
68, 100017, 100018, 200018, 200017
69, 100018, 100019, 200019, 200018
70, 100019, 100020, 200020, 200019
71, 100020, 100021, 200021, 200020
72, 100021, 100022, 200022, 200021
73, 100022, 100023, 200023, 200022
74, 100023, 100024, 200024, 200023
75, 100024, 100025, 200025, 200024
76, 100025, 100026, 200026, 200025
77, 100026, 100027, 200027, 200026
78, 100027, 100028, 200028, 200027
79, 100028, 100029, 200029, 200028
80, 100029, 100030, 200030, 200029
81, 100030, 100031, 200031, 200030
82, 100031, 100032, 200032, 200031
83, 100032, 100033, 200033, 200032
84, 100033, 100034, 200034, 200033
85, 100034, 100035, 200035, 200034
86, 100035, 100036, 200036, 200035
87, 100036, 100037, 200037, 200036
88, 100037, 100038, 200038, 200037
89, 100038, 100039, 200039, 200038
90, 100039, 100040, 200040, 200039
91, 100040, 100041, 200041, 200040
92, 100041, 100042, 200042, 200041
93, 100042, 100043, 200043, 200042
94, 100043, 100044, 200044, 200043
95, 100044, 100045, 200045, 200044
96, 100045, 100046, 200046, 200045
97, 100046, 100047, 200047, 200046
98, 100047, 100048, 200048, 200047
99, 100048, 100049, 200049, 200048
100, 100049, 100050, 200050, 200049
101, 100050, 100051, 200051, 200050
102, 100051, 100052, 200052, 200051
103, 200001, 200002, 300002, 300001
104, 200002, 200003, 300003, 300002
105, 200003, 200004, 300004, 300003
106, 200004, 200005, 300005, 300004
107, 200005, 200006, 300006, 300005
108, 200006, 200007, 300007, 300006
109, 200007, 200008, 300008, 300007
110, 200008, 200009, 300009, 300008
111, 200009, 200010, 300010, 300009
112, 200010, 200011, 300011, 300010
113, 200011, 200012, 300012, 300011
114, 200012, 200013, 300013, 300012
115, 200013, 200014, 300014, 300013
116, 200014, 200015, 300015, 300014
117, 200015, 200016, 300016, 300015
118, 200016, 200017, 300017, 300016
119, 200017, 200018, 300018, 300017
120, 200018, 200019, 300019, 300018
121, 200019, 200020, 300020, 300019
122, 200020, 200021, 300021, 300020
123, 200021, 200022, 300022, 300021
124, 200022, 200023, 300023, 300022
125, 200023, 200024, 300024, 300023
126, 200024, 200025, 300025, 300024
127, 200025, 200026, 300026, 300025
128, 200026, 200027, 300027, 300026
129, 200027, 200028, 300028, 300027
130, 200028, 200029, 300029, 300028
131, 200029, 200030, 300030, 300029
132, 200030, 200031, 300031, 300030
133, 200031, 200032, 300032, 300031
134, 200032, 200033, 300033, 300032
135, 200033, 200034, 300034, 300033
136, 200034, 200035, 300035, 300034
137, 200035, 200036, 300036, 300035
138, 200036, 200037, 300037, 300036
139, 200037, 200038, 300038, 300037
140, 200038, 200039, 300039, 300038
141, 200039, 200040, 300040, 300039
142, 200040, 200041, 300041, 300040
143, 200041, 200042, 300042, 300041
144, 200042, 200043, 300043, 300042
145, 200043, 200044, 300044, 300043
146, 200044, 200045, 300045, 300044
147, 200045, 200046, 300046, 300045
148, 200046, 200047, 300047, 300046
149, 200047, 200048, 300048, 300047
150, 200048, 200049, 300049, 300048
151, 200049, 200050, 300050, 300049
152, 200050, 200051, 300051, 300050
153, 200051, 200052, 300052, 300051
154, 300001, 300002, 400002, 400001
155, 300002, 300003, 400003, 400002
156, 300003, 300004, 400004, 400003
157, 300004, 300005, 400005, 400004
158, 300005, 300006, 400006, 400005
159, 300006, 300007, 400007, 400006
160, 300007, 300008, 400008, 400007
161, 300008, 300009, 400009, 400008
162, 300009, 300010, 400010, 400009
163, 300010, 300011, 400011, 400010
164, 300011, 300012, 400012, 400011
165, 300012, 300013, 400013, 400012
166, 300013, 300014, 400014, 400013
167, 300014, 300015, 400015, 400014
168, 300015, 300016, 400016, 400015
169, 300016, 300017, 400017, 400016
170, 300017, 300018, 400018, 400017
171, 300018, 300019, 400019, 400018
172, 300019, 300020, 400020, 400019
173, 300020, 300021, 400021, 400020
174, 300021, 300022, 400022, 400021
175, 300022, 300023, 400023, 400022
176, 300023, 300024, 400024, 400023
177, 300024, 300025, 400025, 400024
178, 300025, 300026, 400026, 400025
179, 300026, 300027, 400027, 400026
180, 300027, 300028, 400028, 400027
181, 300028, 300029, 400029, 400028
182, 300029, 300030, 400030, 400029
183, 300030, 300031, 400031, 400030
184, 300031, 300032, 400032, 400031
185, 300032, 300033, 400033, 400032
186, 300033, 300034, 400034, 400033
187, 300034, 300035, 400035, 400034
188, 300035, 300036, 400036, 400035
189, 300036, 300037, 400037, 400036
190, 300037, 300038, 400038, 400037
191, 300038, 300039, 400039, 400038
192, 300039, 300040, 400040, 400039
193, 300040, 300041, 400041, 400040
194, 300041, 300042, 400042, 400041
195, 300042, 300043, 400043, 400042
196, 300043, 300044, 400044, 400043
197, 300044, 300045, 400045, 400044
198, 300045, 300046, 400046, 400045
199, 300046, 300047, 400047, 400046
200, 300047, 300048, 400048, 400047
201, 300048, 300049, 400049, 400048
202, 300049, 300050, 400050, 400049
203, 300050, 300051, 400051, 400050
204, 300051, 300052, 400052, 400051
205, 400001, 400002, 500002, 500001
206, 400002, 400003, 500003, 500002
207, 400003, 400004, 500004, 500003
208, 400004, 400005, 500005, 500004
209, 400005, 400006, 500006, 500005
210, 400006, 400007, 500007, 500006
211, 400007, 400008, 500008, 500007
212, 400008, 400009, 500009, 500008
213, 400009, 400010, 500010, 500009
214, 400010, 400011, 500011, 500010
215, 400011, 400012, 500012, 500011
216, 400012, 400013, 500013, 500012
217, 400013, 400014, 500014, 500013
218, 400014, 400015, 500015, 500014
219, 400015, 400016, 500016, 500015
220, 400016, 400017, 500017, 500016
221, 400017, 400018, 500018, 500017
222, 400018, 400019, 500019, 500018
223, 400019, 400020, 500020, 500019
224, 400020, 400021, 500021, 500020
225, 400021, 400022, 500022, 500021
226, 400022, 400023, 500023, 500022
227, 400023, 400024, 500024, 500023
228, 400024, 400025, 500025, 500024
229, 400025, 400026, 500026, 500025
230, 400026, 400027, 500027, 500026
231, 400027, 400028, 500028, 500027
232, 400028, 400029, 500029, 500028
233, 400029, 400030, 500030, 500029
234, 400030, 400031, 500031, 500030
235, 400031, 400032, 500032, 500031
236, 400032, 400033, 500033, 500032
237, 400033, 400034, 500034, 500033
238, 400034, 400035, 500035, 500034
239, 400035, 400036, 500036, 500035
240, 400036, 400037, 500037, 500036
241, 400037, 400038, 500038, 500037
242, 400038, 400039, 500039, 500038
243, 400039, 400040, 500040, 500039
244, 400040, 400041, 500041, 500040
245, 400041, 400042, 500042, 500041
246, 400042, 400043, 500043, 500042
247, 400043, 400044, 500044, 500043
248, 400044, 400045, 500045, 500044
249, 400045, 400046, 500046, 500045
250, 400046, 400047, 500047, 500046
251, 400047, 400048, 500048, 500047
252, 400048, 400049, 500049, 500048
253, 400049, 400050, 500050, 500049
254, 400050, 400051, 500051, 500050
255, 400051, 400052, 500052, 500051
256, 500001, 500002, 600002, 600001
257, 500002, 500003, 600003, 600002
258, 500003, 500004, 600004, 600003
259, 500004, 500005, 600005, 600004
260, 500005, 500006, 600006, 600005
261, 500006, 500007, 600007, 600006
262, 500007, 500008, 600008, 600007
263, 500008, 500009, 600009, 600008
264, 500009, 500010, 600010, 600009
265, 500010, 500011, 600011, 600010
266, 500011, 500012, 600012, 600011
267, 500012, 500013, 600013, 600012
268, 500013, 500014, 600014, 600013
269, 500014, 500015, 600015, 600014
270, 500015, 500016, 600016, 600015
271, 500016, 500017, 600017, 600016
272, 500017, 500018, 600018, 600017
273, 500018, 500019, 600019, 600018
274, 500019, 500020, 600020, 600019
275, 500020, 500021, 600021, 600020
276, 500021, 500022, 600022, 600021
277, 500022, 500023, 600023, 600022
278, 500023, 500024, 600024, 600023
279, 500024, 500025, 600025, 600024
280, 500025, 500026, 600026, 600025
281, 500026, 500027, 600027, 600026
282, 500027, 500028, 600028, 600027
283, 500028, 500029, 600029, 600028
284, 500029, 500030, 600030, 600029
285, 500030, 500031, 600031, 600030
286, 500031, 500032, 600032, 600031
287, 500032, 500033, 600033, 600032
288, 500033, 500034, 600034, 600033
289, 500034, 500035, 600035, 600034
290, 500035, 500036, 600036, 600035
291, 500036, 500037, 600037, 600036
292, 500037, 500038, 600038, 600037
293, 500038, 500039, 600039, 600038
294, 500039, 500040, 600040, 600039
295, 500040, 500041, 600041, 600040
296, 500041, 500042, 600042, 600041
297, 500042, 500043, 600043, 600042
298, 500043, 500044, 600044, 600043
299, 500044, 500045, 600045, 600044
300, 500045, 500046, 600046, 600045
301, 500046, 500047, 600047, 600046
302, 500047, 500048, 600048, 600047
303, 500048, 500049, 600049, 600048
304, 500049, 500050, 600050, 600049
305, 500050, 500051, 600051, 600050
306, 500051, 500052, 600052, 600051
307, 600001, 600002, 700002, 700001
308, 600002, 600003, 700003, 700002
309, 600003, 600004, 700004, 700003
310, 600004, 600005, 700005, 700004
311, 600005, 600006, 700006, 700005
312, 600006, 600007, 700007, 700006
313, 600007, 600008, 700008, 700007
314, 600008, 600009, 700009, 700008
315, 600009, 600010, 700010, 700009
316, 600010, 600011, 700011, 700010
317, 600011, 600012, 700012, 700011
318, 600012, 600013, 700013, 700012
319, 600013, 600014, 700014, 700013
320, 600014, 600015, 700015, 700014
321, 600015, 600016, 700016, 700015
322, 600016, 600017, 700017, 700016
323, 600017, 600018, 700018, 700017
324, 600018, 600019, 700019, 700018
325, 600019, 600020, 700020, 700019
326, 600020, 600021, 700021, 700020
327, 600021, 600022, 700022, 700021
328, 600022, 600023, 700023, 700022
329, 600023, 600024, 700024, 700023
330, 600024, 600025, 700025, 700024
331, 600025, 600026, 700026, 700025
332, 600026, 600027, 700027, 700026
333, 600027, 600028, 700028, 700027
334, 600028, 600029, 700029, 700028
335, 600029, 600030, 700030, 700029
336, 600030, 600031, 700031, 700030
337, 600031, 600032, 700032, 700031
338, 600032, 600033, 700033, 700032
339, 600033, 600034, 700034, 700033
340, 600034, 600035, 700035, 700034
341, 600035, 600036, 700036, 700035
342, 600036, 600037, 700037, 700036
343, 600037, 600038, 700038, 700037
344, 600038, 600039, 700039, 700038
345, 600039, 600040, 700040, 700039
346, 600040, 600041, 700041, 700040
347, 600041, 600042, 700042, 700041
348, 600042, 600043, 700043, 700042
349, 600043, 600044, 700044, 700043
350, 600044, 600045, 700045, 700044
351, 600045, 600046, 700046, 700045
352, 600046, 600047, 700047, 700046
353, 600047, 600048, 700048, 700047
354, 600048, 600049, 700049, 700048
355, 600049, 600050, 700050, 700049
356, 600050, 600051, 700051, 700050
357, 600051, 600052, 700052, 700051
358, 700001, 700002, 800002, 800001
359, 700002, 700003, 800003, 800002
360, 700003, 700004, 800004, 800003
361, 700004, 700005, 800005, 800004
362, 700005, 700006, 800006, 800005
363, 700006, 700007, 800007, 800006
364, 700007, 700008, 800008, 800007
365, 700008, 700009, 800009, 800008
366, 700009, 700010, 800010, 800009
367, 700010, 700011, 800011, 800010
368, 700011, 700012, 800012, 800011
369, 700012, 700013, 800013, 800012
370, 700013, 700014, 800014, 800013
371, 700014, 700015, 800015, 800014
372, 700015, 700016, 800016, 800015
373, 700016, 700017, 800017, 800016
374, 700017, 700018, 800018, 800017
375, 700018, 700019, 800019, 800018
376, 700019, 700020, 800020, 800019
377, 700020, 700021, 800021, 800020
378, 700021, 700022, 800022, 800021
379, 700022, 700023, 800023, 800022
380, 700023, 700024, 800024, 800023
381, 700024, 700025, 800025, 800024
382, 700025, 700026, 800026, 800025
383, 700026, 700027, 800027, 800026
384, 700027, 700028, 800028, 800027
385, 700028, 700029, 800029, 800028
386, 700029, 700030, 800030, 800029
387, 700030, 700031, 800031, 800030
388, 700031, 700032, 800032, 800031
389, 700032, 700033, 800033, 800032
390, 700033, 700034, 800034, 800033
391, 700034, 700035, 800035, 800034
392, 700035, 700036, 800036, 800035
393, 700036, 700037, 800037, 800036
394, 700037, 700038, 800038, 800037
395, 700038, 700039, 800039, 800038
396, 700039, 700040, 800040, 800039
397, 700040, 700041, 800041, 800040
398, 700041, 700042, 800042, 800041
399, 700042, 700043, 800043, 800042
400, 700043, 700044, 800044, 800043
401, 700044, 700045, 800045, 800044
402, 700045, 700046, 800046, 800045
403, 700046, 700047, 800047, 800046
404, 700047, 700048, 800048, 800047
405, 700048, 700049, 800049, 800048
406, 700049, 700050, 800050, 800049
407, 700050, 700051, 800051, 800050
408, 700051, 700052, 800052, 800051
409, 800001, 800002, 900002, 900001
410, 800002, 800003, 900003, 900002
411, 800003, 800004, 900004, 900003
412, 800004, 800005, 900005, 900004
413, 800005, 800006, 900006, 900005
414, 800006, 800007, 900007, 900006
415, 800007, 800008, 900008, 900007
416, 800008, 800009, 900009, 900008
417, 800009, 800010, 900010, 900009
418, 800010, 800011, 900011, 900010
419, 800011, 800012, 900012, 900011
420, 800012, 800013, 900013, 900012
421, 800013, 800014, 900014, 900013
422, 800014, 800015, 900015, 900014
423, 800015, 800016, 900016, 900015
424, 800016, 800017, 900017, 900016
425, 800017, 800018, 900018, 900017
426, 800018, 800019, 900019, 900018
427, 800019, 800020, 900020, 900019
428, 800020, 800021, 900021, 900020
429, 800021, 800022, 900022, 900021
430, 800022, 800023, 900023, 900022
431, 800023, 800024, 900024, 900023
432, 800024, 800025, 900025, 900024
433, 800025, 800026, 900026, 900025
434, 800026, 800027, 900027, 900026
435, 800027, 800028, 900028, 900027
436, 800028, 800029, 900029, 900028
437, 800029, 800030, 900030, 900029
438, 800030, 800031, 900031, 900030
439, 800031, 800032, 900032, 900031
440, 800032, 800033, 900033, 900032
441, 800033, 800034, 900034, 900033
442, 800034, 800035, 900035, 900034
443, 800035, 800036, 900036, 900035
444, 800036, 800037, 900037, 900036
445, 800037, 800038, 900038, 900037
446, 800038, 800039, 900039, 900038
447, 800039, 800040, 900040, 900039
448, 800040, 800041, 900041, 900040
449, 800041, 800042, 900042, 900041
450, 800042, 800043, 900043, 900042
451, 800043, 800044, 900044, 900043
452, 800044, 800045, 900045, 900044
453, 800045, 800046, 900046, 900045
454, 800046, 800047, 900047, 900046
455, 800047, 800048, 900048, 900047
456, 800048, 800049, 900049, 900048
457, 800049, 800050, 900050, 900049
458, 800050, 800051, 900051, 900050
459, 800051, 800052, 900052, 900051
460, 900001, 900002, 1000002, 1000001
461, 900002, 900003, 1000003, 1000002
462, 900003, 900004, 1000004, 1000003
463, 900004, 900005, 1000005, 1000004
464, 900005, 900006, 1000006, 1000005
465, 900006, 900007, 1000007, 1000006
466, 900007, 900008, 1000008, 1000007
467, 900008, 900009, 1000009, 1000008
468, 900009, 900010, 1000010, 1000009
469, 900010, 900011, 1000011, 1000010
470, 900011, 900012, 1000012, 1000011
471, 900012, 900013, 1000013, 1000012
472, 900013, 900014, 1000014, 1000013
473, 900014, 900015, 1000015, 1000014
474, 900015, 900016, 1000016, 1000015
475, 900016, 900017, 1000017, 1000016
476, 900017, 900018, 1000018, 1000017
477, 900018, 900019, 1000019, 1000018
478, 900019, 900020, 1000020, 1000019
479, 900020, 900021, 1000021, 1000020
480, 900021, 900022, 1000022, 1000021
481, 900022, 900023, 1000023, 1000022
482, 900023, 900024, 1000024, 1000023
483, 900024, 900025, 1000025, 1000024
484, 900025, 900026, 1000026, 1000025
485, 900026, 900027, 1000027, 1000026
486, 900027, 900028, 1000028, 1000027
487, 900028, 900029, 1000029, 1000028
488, 900029, 900030, 1000030, 1000029
489, 900030, 900031, 1000031, 1000030
490, 900031, 900032, 1000032, 1000031
491, 900032, 900033, 1000033, 1000032
492, 900033, 900034, 1000034, 1000033
493, 900034, 900035, 1000035, 1000034
494, 900035, 900036, 1000036, 1000035
495, 900036, 900037, 1000037, 1000036
496, 900037, 900038, 1000038, 1000037
497, 900038, 900039, 1000039, 1000038
498, 900039, 900040, 1000040, 1000039
499, 900040, 900041, 1000041, 1000040
500, 900041, 900042, 1000042, 1000041
501, 900042, 900043, 1000043, 1000042
502, 900043, 900044, 1000044, 1000043
503, 900044, 900045, 1000045, 1000044
504, 900045, 900046, 1000046, 1000045
505, 900046, 900047, 1000047, 1000046
506, 900047, 900048, 1000048, 1000047
507, 900048, 900049, 1000049, 1000048
508, 900049, 900050, 1000050, 1000049
509, 900050, 900051, 1000051, 1000050
510, 900051, 900052, 1000052, 1000051
511, 1000001, 1000002, 1100002, 1100001
512, 1000002, 1000003, 1100003, 1100002
513, 1000003, 1000004, 1100004, 1100003
514, 1000004, 1000005, 1100005, 1100004
515, 1000005, 1000006, 1100006, 1100005
516, 1000006, 1000007, 1100007, 1100006
517, 1000007, 1000008, 1100008, 1100007
518, 1000008, 1000009, 1100009, 1100008
519, 1000009, 1000010, 1100010, 1100009
520, 1000010, 1000011, 1100011, 1100010
521, 1000011, 1000012, 1100012, 1100011
522, 1000012, 1000013, 1100013, 1100012
523, 1000013, 1000014, 1100014, 1100013
524, 1000014, 1000015, 1100015, 1100014
525, 1000015, 1000016, 1100016, 1100015
526, 1000016, 1000017, 1100017, 1100016
527, 1000017, 1000018, 1100018, 1100017
528, 1000018, 1000019, 1100019, 1100018
529, 1000019, 1000020, 1100020, 1100019
530, 1000020, 1000021, 1100021, 1100020
531, 1000021, 1000022, 1100022, 1100021
532, 1000022, 1000023, 1100023, 1100022
533, 1000023, 1000024, 1100024, 1100023
534, 1000024, 1000025, 1100025, 1100024
535, 1000025, 1000026, 1100026, 1100025
536, 1000026, 1000027, 1100027, 1100026
537, 1000027, 1000028, 1100028, 1100027
538, 1000028, 1000029, 1100029, 1100028
539, 1000029, 1000030, 1100030, 1100029
540, 1000030, 1000031, 1100031, 1100030
541, 1000031, 1000032, 1100032, 1100031
542, 1000032, 1000033, 1100033, 1100032
543, 1000033, 1000034, 1100034, 1100033
544, 1000034, 1000035, 1100035, 1100034
545, 1000035, 1000036, 1100036, 1100035
546, 1000036, 1000037, 1100037, 1100036
547, 1000037, 1000038, 1100038, 1100037
548, 1000038, 1000039, 1100039, 1100038
549, 1000039, 1000040, 1100040, 1100039
550, 1000040, 1000041, 1100041, 1100040
551, 1000041, 1000042, 1100042, 1100041
552, 1000042, 1000043, 1100043, 1100042
553, 1000043, 1000044, 1100044, 1100043
554, 1000044, 1000045, 1100045, 1100044
555, 1000045, 1000046, 1100046, 1100045
556, 1000046, 1000047, 1100047, 1100046
557, 1000047, 1000048, 1100048, 1100047
558, 1000048, 1000049, 1100049, 1100048
559, 1000049, 1000050, 1100050, 1100049
560, 1000050, 1000051, 1100051, 1100050
561, 1000051, 1000052, 1100052, 1100051
562, 1100001, 1100002, 1200002, 1200001
563, 1100002, 1100003, 1200003, 1200002
564, 1100003, 1100004, 1200004, 1200003
565, 1100004, 1100005, 1200005, 1200004
566, 1100005, 1100006, 1200006, 1200005
567, 1100006, 1100007, 1200007, 1200006
568, 1100007, 1100008, 1200008, 1200007
569, 1100008, 1100009, 1200009, 1200008
570, 1100009, 1100010, 1200010, 1200009
571, 1100010, 1100011, 1200011, 1200010
572, 1100011, 1100012, 1200012, 1200011
573, 1100012, 1100013, 1200013, 1200012
574, 1100013, 1100014, 1200014, 1200013
575, 1100014, 1100015, 1200015, 1200014
576, 1100015, 1100016, 1200016, 1200015
577, 1100016, 1100017, 1200017, 1200016
578, 1100017, 1100018, 1200018, 1200017
579, 1100018, 1100019, 1200019, 1200018
580, 1100019, 1100020, 1200020, 1200019
581, 1100020, 1100021, 1200021, 1200020
582, 1100021, 1100022, 1200022, 1200021
583, 1100022, 1100023, 1200023, 1200022
584, 1100023, 1100024, 1200024, 1200023
585, 1100024, 1100025, 1200025, 1200024
586, 1100025, 1100026, 1200026, 1200025
587, 1100026, 1100027, 1200027, 1200026
588, 1100027, 1100028, 1200028, 1200027
589, 1100028, 1100029, 1200029, 1200028
590, 1100029, 1100030, 1200030, 1200029
591, 1100030, 1100031, 1200031, 1200030
592, 1100031, 1100032, 1200032, 1200031
593, 1100032, 1100033, 1200033, 1200032
594, 1100033, 1100034, 1200034, 1200033
595, 1100034, 1100035, 1200035, 1200034
596, 1100035, 1100036, 1200036, 1200035
597, 1100036, 1100037, 1200037, 1200036
598, 1100037, 1100038, 1200038, 1200037
599, 1100038, 1100039, 1200039, 1200038
600, 1100039, 1100040, 1200040, 1200039
601, 1100040, 1100041, 1200041, 1200040
602, 1100041, 1100042, 1200042, 1200041
603, 1100042, 1100043, 1200043, 1200042
604, 1100043, 1100044, 1200044, 1200043
605, 1100044, 1100045, 1200045, 1200044
606, 1100045, 1100046, 1200046, 1200045
607, 1100046, 1100047, 1200047, 1200046
608, 1100047, 1100048, 1200048, 1200047
609, 1100048, 1100049, 1200049, 1200048
610, 1100049, 1100050, 1200050, 1200049
611, 1100050, 1100051, 1200051, 1200050
612, 1100051, 1100052, 1200052, 1200051
613, 1200001, 1200002, 1300002, 1300001
614, 1200002, 1200003, 1300003, 1300002
615, 1200003, 1200004, 1300004, 1300003
616, 1200004, 1200005, 1300005, 1300004
617, 1200005, 1200006, 1300006, 1300005
618, 1200006, 1200007, 1300007, 1300006
619, 1200007, 1200008, 1300008, 1300007
620, 1200008, 1200009, 1300009, 1300008
621, 1200009, 1200010, 1300010, 1300009
622, 1200010, 1200011, 1300011, 1300010
623, 1200011, 1200012, 1300012, 1300011
624, 1200012, 1200013, 1300013, 1300012
625, 1200013, 1200014, 1300014, 1300013
626, 1200014, 1200015, 1300015, 1300014
627, 1200015, 1200016, 1300016, 1300015
628, 1200016, 1200017, 1300017, 1300016
629, 1200017, 1200018, 1300018, 1300017
630, 1200018, 1200019, 1300019, 1300018
631, 1200019, 1200020, 1300020, 1300019
632, 1200020, 1200021, 1300021, 1300020
633, 1200021, 1200022, 1300022, 1300021
634, 1200022, 1200023, 1300023, 1300022
635, 1200023, 1200024, 1300024, 1300023
636, 1200024, 1200025, 1300025, 1300024
637, 1200025, 1200026, 1300026, 1300025
638, 1200026, 1200027, 1300027, 1300026
639, 1200027, 1200028, 1300028, 1300027
640, 1200028, 1200029, 1300029, 1300028
641, 1200029, 1200030, 1300030, 1300029
642, 1200030, 1200031, 1300031, 1300030
643, 1200031, 1200032, 1300032, 1300031
644, 1200032, 1200033, 1300033, 1300032
645, 1200033, 1200034, 1300034, 1300033
646, 1200034, 1200035, 1300035, 1300034
647, 1200035, 1200036, 1300036, 1300035
648, 1200036, 1200037, 1300037, 1300036
649, 1200037, 1200038, 1300038, 1300037
650, 1200038, 1200039, 1300039, 1300038
651, 1200039, 1200040, 1300040, 1300039
652, 1200040, 1200041, 1300041, 1300040
653, 1200041, 1200042, 1300042, 1300041
654, 1200042, 1200043, 1300043, 1300042
655, 1200043, 1200044, 1300044, 1300043
656, 1200044, 1200045, 1300045, 1300044
657, 1200045, 1200046, 1300046, 1300045
658, 1200046, 1200047, 1300047, 1300046
659, 1200047, 1200048, 1300048, 1300047
660, 1200048, 1200049, 1300049, 1300048
661, 1200049, 1200050, 1300050, 1300049
662, 1200050, 1200051, 1300051, 1300050
663, 1200051, 1200052, 1300052, 1300051
664, 1300001, 1300002, 1400002, 1400001
665, 1300002, 1300003, 1400003, 1400002
666, 1300003, 1300004, 1400004, 1400003
667, 1300004, 1300005, 1400005, 1400004
668, 1300005, 1300006, 1400006, 1400005
669, 1300006, 1300007, 1400007, 1400006
670, 1300007, 1300008, 1400008, 1400007
671, 1300008, 1300009, 1400009, 1400008
672, 1300009, 1300010, 1400010, 1400009
673, 1300010, 1300011, 1400011, 1400010
674, 1300011, 1300012, 1400012, 1400011
675, 1300012, 1300013, 1400013, 1400012
676, 1300013, 1300014, 1400014, 1400013
677, 1300014, 1300015, 1400015, 1400014
678, 1300015, 1300016, 1400016, 1400015
679, 1300016, 1300017, 1400017, 1400016
680, 1300017, 1300018, 1400018, 1400017
681, 1300018, 1300019, 1400019, 1400018
682, 1300019, 1300020, 1400020, 1400019
683, 1300020, 1300021, 1400021, 1400020
684, 1300021, 1300022, 1400022, 1400021
685, 1300022, 1300023, 1400023, 1400022
686, 1300023, 1300024, 1400024, 1400023
687, 1300024, 1300025, 1400025, 1400024
688, 1300025, 1300026, 1400026, 1400025
689, 1300026, 1300027, 1400027, 1400026
690, 1300027, 1300028, 1400028, 1400027
691, 1300028, 1300029, 1400029, 1400028
692, 1300029, 1300030, 1400030, 1400029
693, 1300030, 1300031, 1400031, 1400030
694, 1300031, 1300032, 1400032, 1400031
695, 1300032, 1300033, 1400033, 1400032
696, 1300033, 1300034, 1400034, 1400033
697, 1300034, 1300035, 1400035, 1400034
698, 1300035, 1300036, 1400036, 1400035
699, 1300036, 1300037, 1400037, 1400036
700, 1300037, 1300038, 1400038, 1400037
701, 1300038, 1300039, 1400039, 1400038
702, 1300039, 1300040, 1400040, 1400039
703, 1300040, 1300041, 1400041, 1400040
704, 1300041, 1300042, 1400042, 1400041
705, 1300042, 1300043, 1400043, 1400042
706, 1300043, 1300044, 1400044, 1400043
707, 1300044, 1300045, 1400045, 1400044
708, 1300045, 1300046, 1400046, 1400045
709, 1300046, 1300047, 1400047, 1400046
710, 1300047, 1300048, 1400048, 1400047
711, 1300048, 1300049, 1400049, 1400048
712, 1300049, 1300050, 1400050, 1400049
713, 1300050, 1300051, 1400051, 1400050
714, 1300051, 1300052, 1400052, 1400051
715, 1400001, 1400002, 1500002, 1500001
716, 1400002, 1400003, 1500003, 1500002
717, 1400003, 1400004, 1500004, 1500003
718, 1400004, 1400005, 1500005, 1500004
719, 1400005, 1400006, 1500006, 1500005
720, 1400006, 1400007, 1500007, 1500006
721, 1400007, 1400008, 1500008, 1500007
722, 1400008, 1400009, 1500009, 1500008
723, 1400009, 1400010, 1500010, 1500009
724, 1400010, 1400011, 1500011, 1500010
725, 1400011, 1400012, 1500012, 1500011
726, 1400012, 1400013, 1500013, 1500012
727, 1400013, 1400014, 1500014, 1500013
728, 1400014, 1400015, 1500015, 1500014
729, 1400015, 1400016, 1500016, 1500015
730, 1400016, 1400017, 1500017, 1500016
731, 1400017, 1400018, 1500018, 1500017
732, 1400018, 1400019, 1500019, 1500018
733, 1400019, 1400020, 1500020, 1500019
734, 1400020, 1400021, 1500021, 1500020
735, 1400021, 1400022, 1500022, 1500021
736, 1400022, 1400023, 1500023, 1500022
737, 1400023, 1400024, 1500024, 1500023
738, 1400024, 1400025, 1500025, 1500024
739, 1400025, 1400026, 1500026, 1500025
740, 1400026, 1400027, 1500027, 1500026
741, 1400027, 1400028, 1500028, 1500027
742, 1400028, 1400029, 1500029, 1500028
743, 1400029, 1400030, 1500030, 1500029
744, 1400030, 1400031, 1500031, 1500030
745, 1400031, 1400032, 1500032, 1500031
746, 1400032, 1400033, 1500033, 1500032
747, 1400033, 1400034, 1500034, 1500033
748, 1400034, 1400035, 1500035, 1500034
749, 1400035, 1400036, 1500036, 1500035
750, 1400036, 1400037, 1500037, 1500036
751, 1400037, 1400038, 1500038, 1500037
752, 1400038, 1400039, 1500039, 1500038
753, 1400039, 1400040, 1500040, 1500039
754, 1400040, 1400041, 1500041, 1500040
755, 1400041, 1400042, 1500042, 1500041
756, 1400042, 1400043, 1500043, 1500042
757, 1400043, 1400044, 1500044, 1500043
758, 1400044, 1400045, 1500045, 1500044
759, 1400045, 1400046, 1500046, 1500045
760, 1400046, 1400047, 1500047, 1500046
761, 1400047, 1400048, 1500048, 1500047
762, 1400048, 1400049, 1500049, 1500048
763, 1400049, 1400050, 1500050, 1500049
764, 1400050, 1400051, 1500051, 1500050
765, 1400051, 1400052, 1500052, 1500051
766, 1500001, 1500002, 1600002, 1600001
767, 1500002, 1500003, 1600003, 1600002
768, 1500003, 1500004, 1600004, 1600003
769, 1500004, 1500005, 1600005, 1600004
770, 1500005, 1500006, 1600006, 1600005
771, 1500006, 1500007, 1600007, 1600006
772, 1500007, 1500008, 1600008, 1600007
773, 1500008, 1500009, 1600009, 1600008
774, 1500009, 1500010, 1600010, 1600009
775, 1500010, 1500011, 1600011, 1600010
776, 1500011, 1500012, 1600012, 1600011
777, 1500012, 1500013, 1600013, 1600012
778, 1500013, 1500014, 1600014, 1600013
779, 1500014, 1500015, 1600015, 1600014
780, 1500015, 1500016, 1600016, 1600015
781, 1500016, 1500017, 1600017, 1600016
782, 1500017, 1500018, 1600018, 1600017
783, 1500018, 1500019, 1600019, 1600018
784, 1500019, 1500020, 1600020, 1600019
785, 1500020, 1500021, 1600021, 1600020
786, 1500021, 1500022, 1600022, 1600021
787, 1500022, 1500023, 1600023, 1600022
788, 1500023, 1500024, 1600024, 1600023
789, 1500024, 1500025, 1600025, 1600024
790, 1500025, 1500026, 1600026, 1600025
791, 1500026, 1500027, 1600027, 1600026
792, 1500027, 1500028, 1600028, 1600027
793, 1500028, 1500029, 1600029, 1600028
794, 1500029, 1500030, 1600030, 1600029
795, 1500030, 1500031, 1600031, 1600030
796, 1500031, 1500032, 1600032, 1600031
797, 1500032, 1500033, 1600033, 1600032
798, 1500033, 1500034, 1600034, 1600033
799, 1500034, 1500035, 1600035, 1600034
800, 1500035, 1500036, 1600036, 1600035
801, 1500036, 1500037, 1600037, 1600036
802, 1500037, 1500038, 1600038, 1600037
803, 1500038, 1500039, 1600039, 1600038
804, 1500039, 1500040, 1600040, 1600039
805, 1500040, 1500041, 1600041, 1600040
806, 1500041, 1500042, 1600042, 1600041
807, 1500042, 1500043, 1600043, 1600042
808, 1500043, 1500044, 1600044, 1600043
809, 1500044, 1500045, 1600045, 1600044
810, 1500045, 1500046, 1600046, 1600045
811, 1500046, 1500047, 1600047, 1600046
812, 1500047, 1500048, 1600048, 1600047
813, 1500048, 1500049, 1600049, 1600048
814, 1500049, 1500050, 1600050, 1600049
815, 1500050, 1500051, 1600051, 1600050
816, 1500051, 1500052, 1600052, 1600051
817, 1600001, 1600002, 1700002, 1700001
818, 1600002, 1600003, 1700003, 1700002
819, 1600003, 1600004, 1700004, 1700003
820, 1600004, 1600005, 1700005, 1700004
821, 1600005, 1600006, 1700006, 1700005
822, 1600006, 1600007, 1700007, 1700006
823, 1600007, 1600008, 1700008, 1700007
824, 1600008, 1600009, 1700009, 1700008
825, 1600009, 1600010, 1700010, 1700009
826, 1600010, 1600011, 1700011, 1700010
827, 1600011, 1600012, 1700012, 1700011
828, 1600012, 1600013, 1700013, 1700012
829, 1600013, 1600014, 1700014, 1700013
830, 1600014, 1600015, 1700015, 1700014
831, 1600015, 1600016, 1700016, 1700015
832, 1600016, 1600017, 1700017, 1700016
833, 1600017, 1600018, 1700018, 1700017
834, 1600018, 1600019, 1700019, 1700018
835, 1600019, 1600020, 1700020, 1700019
836, 1600020, 1600021, 1700021, 1700020
837, 1600021, 1600022, 1700022, 1700021
838, 1600022, 1600023, 1700023, 1700022
839, 1600023, 1600024, 1700024, 1700023
840, 1600024, 1600025, 1700025, 1700024
841, 1600025, 1600026, 1700026, 1700025
842, 1600026, 1600027, 1700027, 1700026
843, 1600027, 1600028, 1700028, 1700027
844, 1600028, 1600029, 1700029, 1700028
845, 1600029, 1600030, 1700030, 1700029
846, 1600030, 1600031, 1700031, 1700030
847, 1600031, 1600032, 1700032, 1700031
848, 1600032, 1600033, 1700033, 1700032
849, 1600033, 1600034, 1700034, 1700033
850, 1600034, 1600035, 1700035, 1700034
851, 1600035, 1600036, 1700036, 1700035
852, 1600036, 1600037, 1700037, 1700036
853, 1600037, 1600038, 1700038, 1700037
854, 1600038, 1600039, 1700039, 1700038
855, 1600039, 1600040, 1700040, 1700039
856, 1600040, 1600041, 1700041, 1700040
857, 1600041, 1600042, 1700042, 1700041
858, 1600042, 1600043, 1700043, 1700042
859, 1600043, 1600044, 1700044, 1700043
860, 1600044, 1600045, 1700045, 1700044
861, 1600045, 1600046, 1700046, 1700045
862, 1600046, 1600047, 1700047, 1700046
863, 1600047, 1600048, 1700048, 1700047
864, 1600048, 1600049, 1700049, 1700048
865, 1600049, 1600050, 1700050, 1700049
866, 1600050, 1600051, 1700051, 1700050
867, 1600051, 1600052, 1700052, 1700051
868, 1700001, 1700002, 1800002, 1800001
869, 1700002, 1700003, 1800003, 1800002
870, 1700003, 1700004, 1800004, 1800003
871, 1700004, 1700005, 1800005, 1800004
872, 1700005, 1700006, 1800006, 1800005
873, 1700006, 1700007, 1800007, 1800006
874, 1700007, 1700008, 1800008, 1800007
875, 1700008, 1700009, 1800009, 1800008
876, 1700009, 1700010, 1800010, 1800009
877, 1700010, 1700011, 1800011, 1800010
878, 1700011, 1700012, 1800012, 1800011
879, 1700012, 1700013, 1800013, 1800012
880, 1700013, 1700014, 1800014, 1800013
881, 1700014, 1700015, 1800015, 1800014
882, 1700015, 1700016, 1800016, 1800015
883, 1700016, 1700017, 1800017, 1800016
884, 1700017, 1700018, 1800018, 1800017
885, 1700018, 1700019, 1800019, 1800018
886, 1700019, 1700020, 1800020, 1800019
887, 1700020, 1700021, 1800021, 1800020
888, 1700021, 1700022, 1800022, 1800021
889, 1700022, 1700023, 1800023, 1800022
890, 1700023, 1700024, 1800024, 1800023
891, 1700024, 1700025, 1800025, 1800024
892, 1700025, 1700026, 1800026, 1800025
893, 1700026, 1700027, 1800027, 1800026
894, 1700027, 1700028, 1800028, 1800027
895, 1700028, 1700029, 1800029, 1800028
896, 1700029, 1700030, 1800030, 1800029
897, 1700030, 1700031, 1800031, 1800030
898, 1700031, 1700032, 1800032, 1800031
899, 1700032, 1700033, 1800033, 1800032
900, 1700033, 1700034, 1800034, 1800033
901, 1700034, 1700035, 1800035, 1800034
902, 1700035, 1700036, 1800036, 1800035
903, 1700036, 1700037, 1800037, 1800036
904, 1700037, 1700038, 1800038, 1800037
905, 1700038, 1700039, 1800039, 1800038
906, 1700039, 1700040, 1800040, 1800039
907, 1700040, 1700041, 1800041, 1800040
908, 1700041, 1700042, 1800042, 1800041
909, 1700042, 1700043, 1800043, 1800042
910, 1700043, 1700044, 1800044, 1800043
911, 1700044, 1700045, 1800045, 1800044
912, 1700045, 1700046, 1800046, 1800045
913, 1700046, 1700047, 1800047, 1800046
914, 1700047, 1700048, 1800048, 1800047
915, 1700048, 1700049, 1800049, 1800048
916, 1700049, 1700050, 1800050, 1800049
917, 1700050, 1700051, 1800051, 1800050
918, 1700051, 1700052, 1800052, 1800051
919, 1800001, 1800002, 1900002, 1900001
920, 1800002, 1800003, 1900003, 1900002
921, 1800003, 1800004, 1900004, 1900003
922, 1800004, 1800005, 1900005, 1900004
923, 1800005, 1800006, 1900006, 1900005
924, 1800006, 1800007, 1900007, 1900006
925, 1800007, 1800008, 1900008, 1900007
926, 1800008, 1800009, 1900009, 1900008
927, 1800009, 1800010, 1900010, 1900009
928, 1800010, 1800011, 1900011, 1900010
929, 1800011, 1800012, 1900012, 1900011
930, 1800012, 1800013, 1900013, 1900012
931, 1800013, 1800014, 1900014, 1900013
932, 1800014, 1800015, 1900015, 1900014
933, 1800015, 1800016, 1900016, 1900015
934, 1800016, 1800017, 1900017, 1900016
935, 1800017, 1800018, 1900018, 1900017
936, 1800018, 1800019, 1900019, 1900018
937, 1800019, 1800020, 1900020, 1900019
938, 1800020, 1800021, 1900021, 1900020
939, 1800021, 1800022, 1900022, 1900021
940, 1800022, 1800023, 1900023, 1900022
941, 1800023, 1800024, 1900024, 1900023
942, 1800024, 1800025, 1900025, 1900024
943, 1800025, 1800026, 1900026, 1900025
944, 1800026, 1800027, 1900027, 1900026
945, 1800027, 1800028, 1900028, 1900027
946, 1800028, 1800029, 1900029, 1900028
947, 1800029, 1800030, 1900030, 1900029
948, 1800030, 1800031, 1900031, 1900030
949, 1800031, 1800032, 1900032, 1900031
950, 1800032, 1800033, 1900033, 1900032
951, 1800033, 1800034, 1900034, 1900033
952, 1800034, 1800035, 1900035, 1900034
953, 1800035, 1800036, 1900036, 1900035
954, 1800036, 1800037, 1900037, 1900036
955, 1800037, 1800038, 1900038, 1900037
956, 1800038, 1800039, 1900039, 1900038
957, 1800039, 1800040, 1900040, 1900039
958, 1800040, 1800041, 1900041, 1900040
959, 1800041, 1800042, 1900042, 1900041
960, 1800042, 1800043, 1900043, 1900042
961, 1800043, 1800044, 1900044, 1900043
962, 1800044, 1800045, 1900045, 1900044
963, 1800045, 1800046, 1900046, 1900045
964, 1800046, 1800047, 1900047, 1900046
965, 1800047, 1800048, 1900048, 1900047
966, 1800048, 1800049, 1900049, 1900048
967, 1800049, 1800050, 1900050, 1900049
968, 1800050, 1800051, 1900051, 1900050
969, 1800051, 1800052, 1900052, 1900051
970, 1900001, 1900002, 2000002, 2000001
971, 1900002, 1900003, 2000003, 2000002
972, 1900003, 1900004, 2000004, 2000003
973, 1900004, 1900005, 2000005, 2000004
974, 1900005, 1900006, 2000006, 2000005
975, 1900006, 1900007, 2000007, 2000006
976, 1900007, 1900008, 2000008, 2000007
977, 1900008, 1900009, 2000009, 2000008
978, 1900009, 1900010, 2000010, 2000009
979, 1900010, 1900011, 2000011, 2000010
980, 1900011, 1900012, 2000012, 2000011
981, 1900012, 1900013, 2000013, 2000012
982, 1900013, 1900014, 2000014, 2000013
983, 1900014, 1900015, 2000015, 2000014
984, 1900015, 1900016, 2000016, 2000015
985, 1900016, 1900017, 2000017, 2000016
986, 1900017, 1900018, 2000018, 2000017
987, 1900018, 1900019, 2000019, 2000018
988, 1900019, 1900020, 2000020, 2000019
989, 1900020, 1900021, 2000021, 2000020
990, 1900021, 1900022, 2000022, 2000021
991, 1900022, 1900023, 2000023, 2000022
992, 1900023, 1900024, 2000024, 2000023
993, 1900024, 1900025, 2000025, 2000024
994, 1900025, 1900026, 2000026, 2000025
995, 1900026, 1900027, 2000027, 2000026
996, 1900027, 1900028, 2000028, 2000027
997, 1900028, 1900029, 2000029, 2000028
998, 1900029, 1900030, 2000030, 2000029
999, 1900030, 1900031, 2000031, 2000030
1000, 1900031, 1900032, 2000032, 2000031
1001, 1900032, 1900033, 2000033, 2000032
1002, 1900033, 1900034, 2000034, 2000033
1003, 1900034, 1900035, 2000035, 2000034
1004, 1900035, 1900036, 2000036, 2000035
1005, 1900036, 1900037, 2000037, 2000036
1006, 1900037, 1900038, 2000038, 2000037
1007, 1900038, 1900039, 2000039, 2000038
1008, 1900039, 1900040, 2000040, 2000039
1009, 1900040, 1900041, 2000041, 2000040
1010, 1900041, 1900042, 2000042, 2000041
1011, 1900042, 1900043, 2000043, 2000042
1012, 1900043, 1900044, 2000044, 2000043
1013, 1900044, 1900045, 2000045, 2000044
1014, 1900045, 1900046, 2000046, 2000045
1015, 1900046, 1900047, 2000047, 2000046
1016, 1900047, 1900048, 2000048, 2000047
1017, 1900048, 1900049, 2000049, 2000048
1018, 1900049, 1900050, 2000050, 2000049
1019, 1900050, 1900051, 2000051, 2000050
1020, 1900051, 1900052, 2000052, 2000051
1021, 2000001, 2000002, 2100002, 2100001
1022, 2000002, 2000003, 2100003, 2100002
1023, 2000003, 2000004, 2100004, 2100003
1024, 2000004, 2000005, 2100005, 2100004
1025, 2000005, 2000006, 2100006, 2100005
1026, 2000006, 2000007, 2100007, 2100006
1027, 2000007, 2000008, 2100008, 2100007
1028, 2000008, 2000009, 2100009, 2100008
1029, 2000009, 2000010, 2100010, 2100009
1030, 2000010, 2000011, 2100011, 2100010
1031, 2000011, 2000012, 2100012, 2100011
1032, 2000012, 2000013, 2100013, 2100012
1033, 2000013, 2000014, 2100014, 2100013
1034, 2000014, 2000015, 2100015, 2100014
1035, 2000015, 2000016, 2100016, 2100015
1036, 2000016, 2000017, 2100017, 2100016
1037, 2000017, 2000018, 2100018, 2100017
1038, 2000018, 2000019, 2100019, 2100018
1039, 2000019, 2000020, 2100020, 2100019
1040, 2000020, 2000021, 2100021, 2100020
1041, 2000021, 2000022, 2100022, 2100021
1042, 2000022, 2000023, 2100023, 2100022
1043, 2000023, 2000024, 2100024, 2100023
1044, 2000024, 2000025, 2100025, 2100024
1045, 2000025, 2000026, 2100026, 2100025
1046, 2000026, 2000027, 2100027, 2100026
1047, 2000027, 2000028, 2100028, 2100027
1048, 2000028, 2000029, 2100029, 2100028
1049, 2000029, 2000030, 2100030, 2100029
1050, 2000030, 2000031, 2100031, 2100030
1051, 2000031, 2000032, 2100032, 2100031
1052, 2000032, 2000033, 2100033, 2100032
1053, 2000033, 2000034, 2100034, 2100033
1054, 2000034, 2000035, 2100035, 2100034
1055, 2000035, 2000036, 2100036, 2100035
1056, 2000036, 2000037, 2100037, 2100036
1057, 2000037, 2000038, 2100038, 2100037
1058, 2000038, 2000039, 2100039, 2100038
1059, 2000039, 2000040, 2100040, 2100039
1060, 2000040, 2000041, 2100041, 2100040
1061, 2000041, 2000042, 2100042, 2100041
1062, 2000042, 2000043, 2100043, 2100042
1063, 2000043, 2000044, 2100044, 2100043
1064, 2000044, 2000045, 2100045, 2100044
1065, 2000045, 2000046, 2100046, 2100045
1066, 2000046, 2000047, 2100047, 2100046
1067, 2000047, 2000048, 2100048, 2100047
1068, 2000048, 2000049, 2100049, 2100048
1069, 2000049, 2000050, 2100050, 2100049
1070, 2000050, 2000051, 2100051, 2100050
1071, 2000051, 2000052, 2100052, 2100051
1072, 2100001, 2100002, 2200002, 2200001
1073, 2100002, 2100003, 2200003, 2200002
1074, 2100003, 2100004, 2200004, 2200003
1075, 2100004, 2100005, 2200005, 2200004
1076, 2100005, 2100006, 2200006, 2200005
1077, 2100006, 2100007, 2200007, 2200006
1078, 2100007, 2100008, 2200008, 2200007
1079, 2100008, 2100009, 2200009, 2200008
1080, 2100009, 2100010, 2200010, 2200009
1081, 2100010, 2100011, 2200011, 2200010
1082, 2100011, 2100012, 2200012, 2200011
1083, 2100012, 2100013, 2200013, 2200012
1084, 2100013, 2100014, 2200014, 2200013
1085, 2100014, 2100015, 2200015, 2200014
1086, 2100015, 2100016, 2200016, 2200015
1087, 2100016, 2100017, 2200017, 2200016
1088, 2100017, 2100018, 2200018, 2200017
1089, 2100018, 2100019, 2200019, 2200018
1090, 2100019, 2100020, 2200020, 2200019
1091, 2100020, 2100021, 2200021, 2200020
1092, 2100021, 2100022, 2200022, 2200021
1093, 2100022, 2100023, 2200023, 2200022
1094, 2100023, 2100024, 2200024, 2200023
1095, 2100024, 2100025, 2200025, 2200024
1096, 2100025, 2100026, 2200026, 2200025
1097, 2100026, 2100027, 2200027, 2200026
1098, 2100027, 2100028, 2200028, 2200027
1099, 2100028, 2100029, 2200029, 2200028
1100, 2100029, 2100030, 2200030, 2200029
1101, 2100030, 2100031, 2200031, 2200030
1102, 2100031, 2100032, 2200032, 2200031
1103, 2100032, 2100033, 2200033, 2200032
1104, 2100033, 2100034, 2200034, 2200033
1105, 2100034, 2100035, 2200035, 2200034
1106, 2100035, 2100036, 2200036, 2200035
1107, 2100036, 2100037, 2200037, 2200036
1108, 2100037, 2100038, 2200038, 2200037
1109, 2100038, 2100039, 2200039, 2200038
1110, 2100039, 2100040, 2200040, 2200039
1111, 2100040, 2100041, 2200041, 2200040
1112, 2100041, 2100042, 2200042, 2200041
1113, 2100042, 2100043, 2200043, 2200042
1114, 2100043, 2100044, 2200044, 2200043
1115, 2100044, 2100045, 2200045, 2200044
1116, 2100045, 2100046, 2200046, 2200045
1117, 2100046, 2100047, 2200047, 2200046
1118, 2100047, 2100048, 2200048, 2200047
1119, 2100048, 2100049, 2200049, 2200048
1120, 2100049, 2100050, 2200050, 2200049
1121, 2100050, 2100051, 2200051, 2200050
1122, 2100051, 2100052, 2200052, 2200051
1123, 2200001, 2200002, 2300002, 2300001
1124, 2200002, 2200003, 2300003, 2300002
1125, 2200003, 2200004, 2300004, 2300003
1126, 2200004, 2200005, 2300005, 2300004
1127, 2200005, 2200006, 2300006, 2300005
1128, 2200006, 2200007, 2300007, 2300006
1129, 2200007, 2200008, 2300008, 2300007
1130, 2200008, 2200009, 2300009, 2300008
1131, 2200009, 2200010, 2300010, 2300009
1132, 2200010, 2200011, 2300011, 2300010
1133, 2200011, 2200012, 2300012, 2300011
1134, 2200012, 2200013, 2300013, 2300012
1135, 2200013, 2200014, 2300014, 2300013
1136, 2200014, 2200015, 2300015, 2300014
1137, 2200015, 2200016, 2300016, 2300015
1138, 2200016, 2200017, 2300017, 2300016
1139, 2200017, 2200018, 2300018, 2300017
1140, 2200018, 2200019, 2300019, 2300018
1141, 2200019, 2200020, 2300020, 2300019
1142, 2200020, 2200021, 2300021, 2300020
1143, 2200021, 2200022, 2300022, 2300021
1144, 2200022, 2200023, 2300023, 2300022
1145, 2200023, 2200024, 2300024, 2300023
1146, 2200024, 2200025, 2300025, 2300024
1147, 2200025, 2200026, 2300026, 2300025
1148, 2200026, 2200027, 2300027, 2300026
1149, 2200027, 2200028, 2300028, 2300027
1150, 2200028, 2200029, 2300029, 2300028
1151, 2200029, 2200030, 2300030, 2300029
1152, 2200030, 2200031, 2300031, 2300030
1153, 2200031, 2200032, 2300032, 2300031
1154, 2200032, 2200033, 2300033, 2300032
1155, 2200033, 2200034, 2300034, 2300033
1156, 2200034, 2200035, 2300035, 2300034
1157, 2200035, 2200036, 2300036, 2300035
1158, 2200036, 2200037, 2300037, 2300036
1159, 2200037, 2200038, 2300038, 2300037
1160, 2200038, 2200039, 2300039, 2300038
1161, 2200039, 2200040, 2300040, 2300039
1162, 2200040, 2200041, 2300041, 2300040
1163, 2200041, 2200042, 2300042, 2300041
1164, 2200042, 2200043, 2300043, 2300042
1165, 2200043, 2200044, 2300044, 2300043
1166, 2200044, 2200045, 2300045, 2300044
1167, 2200045, 2200046, 2300046, 2300045
1168, 2200046, 2200047, 2300047, 2300046
1169, 2200047, 2200048, 2300048, 2300047
1170, 2200048, 2200049, 2300049, 2300048
1171, 2200049, 2200050, 2300050, 2300049
1172, 2200050, 2200051, 2300051, 2300050
1173, 2200051, 2200052, 2300052, 2300051
1174, 2300001, 2300002, 2400002, 2400001
1175, 2300002, 2300003, 2400003, 2400002
1176, 2300003, 2300004, 2400004, 2400003
1177, 2300004, 2300005, 2400005, 2400004
1178, 2300005, 2300006, 2400006, 2400005
1179, 2300006, 2300007, 2400007, 2400006
1180, 2300007, 2300008, 2400008, 2400007
1181, 2300008, 2300009, 2400009, 2400008
1182, 2300009, 2300010, 2400010, 2400009
1183, 2300010, 2300011, 2400011, 2400010
1184, 2300011, 2300012, 2400012, 2400011
1185, 2300012, 2300013, 2400013, 2400012
1186, 2300013, 2300014, 2400014, 2400013
1187, 2300014, 2300015, 2400015, 2400014
1188, 2300015, 2300016, 2400016, 2400015
1189, 2300016, 2300017, 2400017, 2400016
1190, 2300017, 2300018, 2400018, 2400017
1191, 2300018, 2300019, 2400019, 2400018
1192, 2300019, 2300020, 2400020, 2400019
1193, 2300020, 2300021, 2400021, 2400020
1194, 2300021, 2300022, 2400022, 2400021
1195, 2300022, 2300023, 2400023, 2400022
1196, 2300023, 2300024, 2400024, 2400023
1197, 2300024, 2300025, 2400025, 2400024
1198, 2300025, 2300026, 2400026, 2400025
1199, 2300026, 2300027, 2400027, 2400026
1200, 2300027, 2300028, 2400028, 2400027
1201, 2300028, 2300029, 2400029, 2400028
1202, 2300029, 2300030, 2400030, 2400029
1203, 2300030, 2300031, 2400031, 2400030
1204, 2300031, 2300032, 2400032, 2400031
1205, 2300032, 2300033, 2400033, 2400032
1206, 2300033, 2300034, 2400034, 2400033
1207, 2300034, 2300035, 2400035, 2400034
1208, 2300035, 2300036, 2400036, 2400035
1209, 2300036, 2300037, 2400037, 2400036
1210, 2300037, 2300038, 2400038, 2400037
1211, 2300038, 2300039, 2400039, 2400038
1212, 2300039, 2300040, 2400040, 2400039
1213, 2300040, 2300041, 2400041, 2400040
1214, 2300041, 2300042, 2400042, 2400041
1215, 2300042, 2300043, 2400043, 2400042
1216, 2300043, 2300044, 2400044, 2400043
1217, 2300044, 2300045, 2400045, 2400044
1218, 2300045, 2300046, 2400046, 2400045
1219, 2300046, 2300047, 2400047, 2400046
1220, 2300047, 2300048, 2400048, 2400047
1221, 2300048, 2300049, 2400049, 2400048
1222, 2300049, 2300050, 2400050, 2400049
1223, 2300050, 2300051, 2400051, 2400050
1224, 2300051, 2300052, 2400052, 2400051
1225, 2400001, 2400002, 2500002, 2500001
1226, 2400002, 2400003, 2500003, 2500002
1227, 2400003, 2400004, 2500004, 2500003
1228, 2400004, 2400005, 2500005, 2500004
1229, 2400005, 2400006, 2500006, 2500005
1230, 2400006, 2400007, 2500007, 2500006
1231, 2400007, 2400008, 2500008, 2500007
1232, 2400008, 2400009, 2500009, 2500008
1233, 2400009, 2400010, 2500010, 2500009
1234, 2400010, 2400011, 2500011, 2500010
1235, 2400011, 2400012, 2500012, 2500011
1236, 2400012, 2400013, 2500013, 2500012
1237, 2400013, 2400014, 2500014, 2500013
1238, 2400014, 2400015, 2500015, 2500014
1239, 2400015, 2400016, 2500016, 2500015
1240, 2400016, 2400017, 2500017, 2500016
1241, 2400017, 2400018, 2500018, 2500017
1242, 2400018, 2400019, 2500019, 2500018
1243, 2400019, 2400020, 2500020, 2500019
1244, 2400020, 2400021, 2500021, 2500020
1245, 2400021, 2400022, 2500022, 2500021
1246, 2400022, 2400023, 2500023, 2500022
1247, 2400023, 2400024, 2500024, 2500023
1248, 2400024, 2400025, 2500025, 2500024
1249, 2400025, 2400026, 2500026, 2500025
1250, 2400026, 2400027, 2500027, 2500026
1251, 2400027, 2400028, 2500028, 2500027
1252, 2400028, 2400029, 2500029, 2500028
1253, 2400029, 2400030, 2500030, 2500029
1254, 2400030, 2400031, 2500031, 2500030
1255, 2400031, 2400032, 2500032, 2500031
1256, 2400032, 2400033, 2500033, 2500032
1257, 2400033, 2400034, 2500034, 2500033
1258, 2400034, 2400035, 2500035, 2500034
1259, 2400035, 2400036, 2500036, 2500035
1260, 2400036, 2400037, 2500037, 2500036
1261, 2400037, 2400038, 2500038, 2500037
1262, 2400038, 2400039, 2500039, 2500038
1263, 2400039, 2400040, 2500040, 2500039
1264, 2400040, 2400041, 2500041, 2500040
1265, 2400041, 2400042, 2500042, 2500041
1266, 2400042, 2400043, 2500043, 2500042
1267, 2400043, 2400044, 2500044, 2500043
1268, 2400044, 2400045, 2500045, 2500044
1269, 2400045, 2400046, 2500046, 2500045
1270, 2400046, 2400047, 2500047, 2500046
1271, 2400047, 2400048, 2500048, 2500047
1272, 2400048, 2400049, 2500049, 2500048
1273, 2400049, 2400050, 2500050, 2500049
1274, 2400050, 2400051, 2500051, 2500050
1275, 2400051, 2400052, 2500052, 2500051
1276, 2500001, 2500002, 2600002, 2600001
1277, 2500002, 2500003, 2600003, 2600002
1278, 2500003, 2500004, 2600004, 2600003
1279, 2500004, 2500005, 2600005, 2600004
1280, 2500005, 2500006, 2600006, 2600005
1281, 2500006, 2500007, 2600007, 2600006
1282, 2500007, 2500008, 2600008, 2600007
1283, 2500008, 2500009, 2600009, 2600008
1284, 2500009, 2500010, 2600010, 2600009
1285, 2500010, 2500011, 2600011, 2600010
1286, 2500011, 2500012, 2600012, 2600011
1287, 2500012, 2500013, 2600013, 2600012
1288, 2500013, 2500014, 2600014, 2600013
1289, 2500014, 2500015, 2600015, 2600014
1290, 2500015, 2500016, 2600016, 2600015
1291, 2500016, 2500017, 2600017, 2600016
1292, 2500017, 2500018, 2600018, 2600017
1293, 2500018, 2500019, 2600019, 2600018
1294, 2500019, 2500020, 2600020, 2600019
1295, 2500020, 2500021, 2600021, 2600020
1296, 2500021, 2500022, 2600022, 2600021
1297, 2500022, 2500023, 2600023, 2600022
1298, 2500023, 2500024, 2600024, 2600023
1299, 2500024, 2500025, 2600025, 2600024
1300, 2500025, 2500026, 2600026, 2600025
1301, 2500026, 2500027, 2600027, 2600026
1302, 2500027, 2500028, 2600028, 2600027
1303, 2500028, 2500029, 2600029, 2600028
1304, 2500029, 2500030, 2600030, 2600029
1305, 2500030, 2500031, 2600031, 2600030
1306, 2500031, 2500032, 2600032, 2600031
1307, 2500032, 2500033, 2600033, 2600032
1308, 2500033, 2500034, 2600034, 2600033
1309, 2500034, 2500035, 2600035, 2600034
1310, 2500035, 2500036, 2600036, 2600035
1311, 2500036, 2500037, 2600037, 2600036
1312, 2500037, 2500038, 2600038, 2600037
1313, 2500038, 2500039, 2600039, 2600038
1314, 2500039, 2500040, 2600040, 2600039
1315, 2500040, 2500041, 2600041, 2600040
1316, 2500041, 2500042, 2600042, 2600041
1317, 2500042, 2500043, 2600043, 2600042
1318, 2500043, 2500044, 2600044, 2600043
1319, 2500044, 2500045, 2600045, 2600044
1320, 2500045, 2500046, 2600046, 2600045
1321, 2500046, 2500047, 2600047, 2600046
1322, 2500047, 2500048, 2600048, 2600047
1323, 2500048, 2500049, 2600049, 2600048
1324, 2500049, 2500050, 2600050, 2600049
1325, 2500050, 2500051, 2600051, 2600050
1326, 2500051, 2500052, 2600052, 2600051
1327, 2600001, 2600002, 2700002, 2700001
1328, 2600002, 2600003, 2700003, 2700002
1329, 2600003, 2600004, 2700004, 2700003
1330, 2600004, 2600005, 2700005, 2700004
1331, 2600005, 2600006, 2700006, 2700005
1332, 2600006, 2600007, 2700007, 2700006
1333, 2600007, 2600008, 2700008, 2700007
1334, 2600008, 2600009, 2700009, 2700008
1335, 2600009, 2600010, 2700010, 2700009
1336, 2600010, 2600011, 2700011, 2700010
1337, 2600011, 2600012, 2700012, 2700011
1338, 2600012, 2600013, 2700013, 2700012
1339, 2600013, 2600014, 2700014, 2700013
1340, 2600014, 2600015, 2700015, 2700014
1341, 2600015, 2600016, 2700016, 2700015
1342, 2600016, 2600017, 2700017, 2700016
1343, 2600017, 2600018, 2700018, 2700017
1344, 2600018, 2600019, 2700019, 2700018
1345, 2600019, 2600020, 2700020, 2700019
1346, 2600020, 2600021, 2700021, 2700020
1347, 2600021, 2600022, 2700022, 2700021
1348, 2600022, 2600023, 2700023, 2700022
1349, 2600023, 2600024, 2700024, 2700023
1350, 2600024, 2600025, 2700025, 2700024
1351, 2600025, 2600026, 2700026, 2700025
1352, 2600026, 2600027, 2700027, 2700026
1353, 2600027, 2600028, 2700028, 2700027
1354, 2600028, 2600029, 2700029, 2700028
1355, 2600029, 2600030, 2700030, 2700029
1356, 2600030, 2600031, 2700031, 2700030
1357, 2600031, 2600032, 2700032, 2700031
1358, 2600032, 2600033, 2700033, 2700032
1359, 2600033, 2600034, 2700034, 2700033
1360, 2600034, 2600035, 2700035, 2700034
1361, 2600035, 2600036, 2700036, 2700035
1362, 2600036, 2600037, 2700037, 2700036
1363, 2600037, 2600038, 2700038, 2700037
1364, 2600038, 2600039, 2700039, 2700038
1365, 2600039, 2600040, 2700040, 2700039
1366, 2600040, 2600041, 2700041, 2700040
1367, 2600041, 2600042, 2700042, 2700041
1368, 2600042, 2600043, 2700043, 2700042
1369, 2600043, 2600044, 2700044, 2700043
1370, 2600044, 2600045, 2700045, 2700044
1371, 2600045, 2600046, 2700046, 2700045
1372, 2600046, 2600047, 2700047, 2700046
1373, 2600047, 2600048, 2700048, 2700047
1374, 2600048, 2600049, 2700049, 2700048
1375, 2600049, 2600050, 2700050, 2700049
1376, 2600050, 2600051, 2700051, 2700050
1377, 2600051, 2600052, 2700052, 2700051
1378, 2700001, 2700002, 2800002, 2800001
1379, 2700002, 2700003, 2800003, 2800002
1380, 2700003, 2700004, 2800004, 2800003
1381, 2700004, 2700005, 2800005, 2800004
1382, 2700005, 2700006, 2800006, 2800005
1383, 2700006, 2700007, 2800007, 2800006
1384, 2700007, 2700008, 2800008, 2800007
1385, 2700008, 2700009, 2800009, 2800008
1386, 2700009, 2700010, 2800010, 2800009
1387, 2700010, 2700011, 2800011, 2800010
1388, 2700011, 2700012, 2800012, 2800011
1389, 2700012, 2700013, 2800013, 2800012
1390, 2700013, 2700014, 2800014, 2800013
1391, 2700014, 2700015, 2800015, 2800014
1392, 2700015, 2700016, 2800016, 2800015
1393, 2700016, 2700017, 2800017, 2800016
1394, 2700017, 2700018, 2800018, 2800017
1395, 2700018, 2700019, 2800019, 2800018
1396, 2700019, 2700020, 2800020, 2800019
1397, 2700020, 2700021, 2800021, 2800020
1398, 2700021, 2700022, 2800022, 2800021
1399, 2700022, 2700023, 2800023, 2800022
1400, 2700023, 2700024, 2800024, 2800023
1401, 2700024, 2700025, 2800025, 2800024
1402, 2700025, 2700026, 2800026, 2800025
1403, 2700026, 2700027, 2800027, 2800026
1404, 2700027, 2700028, 2800028, 2800027
1405, 2700028, 2700029, 2800029, 2800028
1406, 2700029, 2700030, 2800030, 2800029
1407, 2700030, 2700031, 2800031, 2800030
1408, 2700031, 2700032, 2800032, 2800031
1409, 2700032, 2700033, 2800033, 2800032
1410, 2700033, 2700034, 2800034, 2800033
1411, 2700034, 2700035, 2800035, 2800034
1412, 2700035, 2700036, 2800036, 2800035
1413, 2700036, 2700037, 2800037, 2800036
1414, 2700037, 2700038, 2800038, 2800037
1415, 2700038, 2700039, 2800039, 2800038
1416, 2700039, 2700040, 2800040, 2800039
1417, 2700040, 2700041, 2800041, 2800040
1418, 2700041, 2700042, 2800042, 2800041
1419, 2700042, 2700043, 2800043, 2800042
1420, 2700043, 2700044, 2800044, 2800043
1421, 2700044, 2700045, 2800045, 2800044
1422, 2700045, 2700046, 2800046, 2800045
1423, 2700046, 2700047, 2800047, 2800046
1424, 2700047, 2700048, 2800048, 2800047
1425, 2700048, 2700049, 2800049, 2800048
1426, 2700049, 2700050, 2800050, 2800049
1427, 2700050, 2700051, 2800051, 2800050
1428, 2700051, 2700052, 2800052, 2800051
1429, 2800001, 2800002, 2900002, 2900001
1430, 2800002, 2800003, 2900003, 2900002
1431, 2800003, 2800004, 2900004, 2900003
1432, 2800004, 2800005, 2900005, 2900004
1433, 2800005, 2800006, 2900006, 2900005
1434, 2800006, 2800007, 2900007, 2900006
1435, 2800007, 2800008, 2900008, 2900007
1436, 2800008, 2800009, 2900009, 2900008
1437, 2800009, 2800010, 2900010, 2900009
1438, 2800010, 2800011, 2900011, 2900010
1439, 2800011, 2800012, 2900012, 2900011
1440, 2800012, 2800013, 2900013, 2900012
1441, 2800013, 2800014, 2900014, 2900013
1442, 2800014, 2800015, 2900015, 2900014
1443, 2800015, 2800016, 2900016, 2900015
1444, 2800016, 2800017, 2900017, 2900016
1445, 2800017, 2800018, 2900018, 2900017
1446, 2800018, 2800019, 2900019, 2900018
1447, 2800019, 2800020, 2900020, 2900019
1448, 2800020, 2800021, 2900021, 2900020
1449, 2800021, 2800022, 2900022, 2900021
1450, 2800022, 2800023, 2900023, 2900022
1451, 2800023, 2800024, 2900024, 2900023
1452, 2800024, 2800025, 2900025, 2900024
1453, 2800025, 2800026, 2900026, 2900025
1454, 2800026, 2800027, 2900027, 2900026
1455, 2800027, 2800028, 2900028, 2900027
1456, 2800028, 2800029, 2900029, 2900028
1457, 2800029, 2800030, 2900030, 2900029
1458, 2800030, 2800031, 2900031, 2900030
1459, 2800031, 2800032, 2900032, 2900031
1460, 2800032, 2800033, 2900033, 2900032
1461, 2800033, 2800034, 2900034, 2900033
1462, 2800034, 2800035, 2900035, 2900034
1463, 2800035, 2800036, 2900036, 2900035
1464, 2800036, 2800037, 2900037, 2900036
1465, 2800037, 2800038, 2900038, 2900037
1466, 2800038, 2800039, 2900039, 2900038
1467, 2800039, 2800040, 2900040, 2900039
1468, 2800040, 2800041, 2900041, 2900040
1469, 2800041, 2800042, 2900042, 2900041
1470, 2800042, 2800043, 2900043, 2900042
1471, 2800043, 2800044, 2900044, 2900043
1472, 2800044, 2800045, 2900045, 2900044
1473, 2800045, 2800046, 2900046, 2900045
1474, 2800046, 2800047, 2900047, 2900046
1475, 2800047, 2800048, 2900048, 2900047
1476, 2800048, 2800049, 2900049, 2900048
1477, 2800049, 2800050, 2900050, 2900049
1478, 2800050, 2800051, 2900051, 2900050
1479, 2800051, 2800052, 2900052, 2900051
1480, 2900001, 2900002, 3000002, 3000001
1481, 2900002, 2900003, 3000003, 3000002
1482, 2900003, 2900004, 3000004, 3000003
1483, 2900004, 2900005, 3000005, 3000004
1484, 2900005, 2900006, 3000006, 3000005
1485, 2900006, 2900007, 3000007, 3000006
1486, 2900007, 2900008, 3000008, 3000007
1487, 2900008, 2900009, 3000009, 3000008
1488, 2900009, 2900010, 3000010, 3000009
1489, 2900010, 2900011, 3000011, 3000010
1490, 2900011, 2900012, 3000012, 3000011
1491, 2900012, 2900013, 3000013, 3000012
1492, 2900013, 2900014, 3000014, 3000013
1493, 2900014, 2900015, 3000015, 3000014
1494, 2900015, 2900016, 3000016, 3000015
1495, 2900016, 2900017, 3000017, 3000016
1496, 2900017, 2900018, 3000018, 3000017
1497, 2900018, 2900019, 3000019, 3000018
1498, 2900019, 2900020, 3000020, 3000019
1499, 2900020, 2900021, 3000021, 3000020
1500, 2900021, 2900022, 3000022, 3000021
1501, 2900022, 2900023, 3000023, 3000022
1502, 2900023, 2900024, 3000024, 3000023
1503, 2900024, 2900025, 3000025, 3000024
1504, 2900025, 2900026, 3000026, 3000025
1505, 2900026, 2900027, 3000027, 3000026
1506, 2900027, 2900028, 3000028, 3000027
1507, 2900028, 2900029, 3000029, 3000028
1508, 2900029, 2900030, 3000030, 3000029
1509, 2900030, 2900031, 3000031, 3000030
1510, 2900031, 2900032, 3000032, 3000031
1511, 2900032, 2900033, 3000033, 3000032
1512, 2900033, 2900034, 3000034, 3000033
1513, 2900034, 2900035, 3000035, 3000034
1514, 2900035, 2900036, 3000036, 3000035
1515, 2900036, 2900037, 3000037, 3000036
1516, 2900037, 2900038, 3000038, 3000037
1517, 2900038, 2900039, 3000039, 3000038
1518, 2900039, 2900040, 3000040, 3000039
1519, 2900040, 2900041, 3000041, 3000040
1520, 2900041, 2900042, 3000042, 3000041
1521, 2900042, 2900043, 3000043, 3000042
1522, 2900043, 2900044, 3000044, 3000043
1523, 2900044, 2900045, 3000045, 3000044
1524, 2900045, 2900046, 3000046, 3000045
1525, 2900046, 2900047, 3000047, 3000046
1526, 2900047, 2900048, 3000048, 3000047
1527, 2900048, 2900049, 3000049, 3000048
1528, 2900049, 2900050, 3000050, 3000049
1529, 2900050, 2900051, 3000051, 3000050
1530, 2900051, 2900052, 3000052, 3000051
1531, 3000001, 3000002, 3100002, 3100001
1532, 3000002, 3000003, 3100003, 3100002
1533, 3000003, 3000004, 3100004, 3100003
1534, 3000004, 3000005, 3100005, 3100004
1535, 3000005, 3000006, 3100006, 3100005
1536, 3000006, 3000007, 3100007, 3100006
1537, 3000007, 3000008, 3100008, 3100007
1538, 3000008, 3000009, 3100009, 3100008
1539, 3000009, 3000010, 3100010, 3100009
1540, 3000010, 3000011, 3100011, 3100010
1541, 3000011, 3000012, 3100012, 3100011
1542, 3000012, 3000013, 3100013, 3100012
1543, 3000013, 3000014, 3100014, 3100013
1544, 3000014, 3000015, 3100015, 3100014
1545, 3000015, 3000016, 3100016, 3100015
1546, 3000016, 3000017, 3100017, 3100016
1547, 3000017, 3000018, 3100018, 3100017
1548, 3000018, 3000019, 3100019, 3100018
1549, 3000019, 3000020, 3100020, 3100019
1550, 3000020, 3000021, 3100021, 3100020
1551, 3000021, 3000022, 3100022, 3100021
1552, 3000022, 3000023, 3100023, 3100022
1553, 3000023, 3000024, 3100024, 3100023
1554, 3000024, 3000025, 3100025, 3100024
1555, 3000025, 3000026, 3100026, 3100025
1556, 3000026, 3000027, 3100027, 3100026
1557, 3000027, 3000028, 3100028, 3100027
1558, 3000028, 3000029, 3100029, 3100028
1559, 3000029, 3000030, 3100030, 3100029
1560, 3000030, 3000031, 3100031, 3100030
1561, 3000031, 3000032, 3100032, 3100031
1562, 3000032, 3000033, 3100033, 3100032
1563, 3000033, 3000034, 3100034, 3100033
1564, 3000034, 3000035, 3100035, 3100034
1565, 3000035, 3000036, 3100036, 3100035
1566, 3000036, 3000037, 3100037, 3100036
1567, 3000037, 3000038, 3100038, 3100037
1568, 3000038, 3000039, 3100039, 3100038
1569, 3000039, 3000040, 3100040, 3100039
1570, 3000040, 3000041, 3100041, 3100040
1571, 3000041, 3000042, 3100042, 3100041
1572, 3000042, 3000043, 3100043, 3100042
1573, 3000043, 3000044, 3100044, 3100043
1574, 3000044, 3000045, 3100045, 3100044
1575, 3000045, 3000046, 3100046, 3100045
1576, 3000046, 3000047, 3100047, 3100046
1577, 3000047, 3000048, 3100048, 3100047
1578, 3000048, 3000049, 3100049, 3100048
1579, 3000049, 3000050, 3100050, 3100049
1580, 3000050, 3000051, 3100051, 3100050
1581, 3000051, 3000052, 3100052, 3100051
1582, 3100001, 3100002, 3200002, 3200001
1583, 3100002, 3100003, 3200003, 3200002
1584, 3100003, 3100004, 3200004, 3200003
1585, 3100004, 3100005, 3200005, 3200004
1586, 3100005, 3100006, 3200006, 3200005
1587, 3100006, 3100007, 3200007, 3200006
1588, 3100007, 3100008, 3200008, 3200007
1589, 3100008, 3100009, 3200009, 3200008
1590, 3100009, 3100010, 3200010, 3200009
1591, 3100010, 3100011, 3200011, 3200010
1592, 3100011, 3100012, 3200012, 3200011
1593, 3100012, 3100013, 3200013, 3200012
1594, 3100013, 3100014, 3200014, 3200013
1595, 3100014, 3100015, 3200015, 3200014
1596, 3100015, 3100016, 3200016, 3200015
1597, 3100016, 3100017, 3200017, 3200016
1598, 3100017, 3100018, 3200018, 3200017
1599, 3100018, 3100019, 3200019, 3200018
1600, 3100019, 3100020, 3200020, 3200019
1601, 3100020, 3100021, 3200021, 3200020
1602, 3100021, 3100022, 3200022, 3200021
1603, 3100022, 3100023, 3200023, 3200022
1604, 3100023, 3100024, 3200024, 3200023
1605, 3100024, 3100025, 3200025, 3200024
1606, 3100025, 3100026, 3200026, 3200025
1607, 3100026, 3100027, 3200027, 3200026
1608, 3100027, 3100028, 3200028, 3200027
1609, 3100028, 3100029, 3200029, 3200028
1610, 3100029, 3100030, 3200030, 3200029
1611, 3100030, 3100031, 3200031, 3200030
1612, 3100031, 3100032, 3200032, 3200031
1613, 3100032, 3100033, 3200033, 3200032
1614, 3100033, 3100034, 3200034, 3200033
1615, 3100034, 3100035, 3200035, 3200034
1616, 3100035, 3100036, 3200036, 3200035
1617, 3100036, 3100037, 3200037, 3200036
1618, 3100037, 3100038, 3200038, 3200037
1619, 3100038, 3100039, 3200039, 3200038
1620, 3100039, 3100040, 3200040, 3200039
1621, 3100040, 3100041, 3200041, 3200040
1622, 3100041, 3100042, 3200042, 3200041
1623, 3100042, 3100043, 3200043, 3200042
1624, 3100043, 3100044, 3200044, 3200043
1625, 3100044, 3100045, 3200045, 3200044
1626, 3100045, 3100046, 3200046, 3200045
1627, 3100046, 3100047, 3200047, 3200046
1628, 3100047, 3100048, 3200048, 3200047
1629, 3100048, 3100049, 3200049, 3200048
1630, 3100049, 3100050, 3200050, 3200049
1631, 3100050, 3100051, 3200051, 3200050
1632, 3100051, 3100052, 3200052, 3200051
1633, 3200001, 3200002, 3300002, 3300001
1634, 3200002, 3200003, 3300003, 3300002
1635, 3200003, 3200004, 3300004, 3300003
1636, 3200004, 3200005, 3300005, 3300004
1637, 3200005, 3200006, 3300006, 3300005
1638, 3200006, 3200007, 3300007, 3300006
1639, 3200007, 3200008, 3300008, 3300007
1640, 3200008, 3200009, 3300009, 3300008
1641, 3200009, 3200010, 3300010, 3300009
1642, 3200010, 3200011, 3300011, 3300010
1643, 3200011, 3200012, 3300012, 3300011
1644, 3200012, 3200013, 3300013, 3300012
1645, 3200013, 3200014, 3300014, 3300013
1646, 3200014, 3200015, 3300015, 3300014
1647, 3200015, 3200016, 3300016, 3300015
1648, 3200016, 3200017, 3300017, 3300016
1649, 3200017, 3200018, 3300018, 3300017
1650, 3200018, 3200019, 3300019, 3300018
1651, 3200019, 3200020, 3300020, 3300019
1652, 3200020, 3200021, 3300021, 3300020
1653, 3200021, 3200022, 3300022, 3300021
1654, 3200022, 3200023, 3300023, 3300022
1655, 3200023, 3200024, 3300024, 3300023
1656, 3200024, 3200025, 3300025, 3300024
1657, 3200025, 3200026, 3300026, 3300025
1658, 3200026, 3200027, 3300027, 3300026
1659, 3200027, 3200028, 3300028, 3300027
1660, 3200028, 3200029, 3300029, 3300028
1661, 3200029, 3200030, 3300030, 3300029
1662, 3200030, 3200031, 3300031, 3300030
1663, 3200031, 3200032, 3300032, 3300031
1664, 3200032, 3200033, 3300033, 3300032
1665, 3200033, 3200034, 3300034, 3300033
1666, 3200034, 3200035, 3300035, 3300034
1667, 3200035, 3200036, 3300036, 3300035
1668, 3200036, 3200037, 3300037, 3300036
1669, 3200037, 3200038, 3300038, 3300037
1670, 3200038, 3200039, 3300039, 3300038
1671, 3200039, 3200040, 3300040, 3300039
1672, 3200040, 3200041, 3300041, 3300040
1673, 3200041, 3200042, 3300042, 3300041
1674, 3200042, 3200043, 3300043, 3300042
1675, 3200043, 3200044, 3300044, 3300043
1676, 3200044, 3200045, 3300045, 3300044
1677, 3200045, 3200046, 3300046, 3300045
1678, 3200046, 3200047, 3300047, 3300046
1679, 3200047, 3200048, 3300048, 3300047
1680, 3200048, 3200049, 3300049, 3300048
1681, 3200049, 3200050, 3300050, 3300049
1682, 3200050, 3200051, 3300051, 3300050
1683, 3200051, 3200052, 3300052, 3300051
1684, 3300001, 3300002, 3400002, 3400001
1685, 3300002, 3300003, 3400003, 3400002
1686, 3300003, 3300004, 3400004, 3400003
1687, 3300004, 3300005, 3400005, 3400004
1688, 3300005, 3300006, 3400006, 3400005
1689, 3300006, 3300007, 3400007, 3400006
1690, 3300007, 3300008, 3400008, 3400007
1691, 3300008, 3300009, 3400009, 3400008
1692, 3300009, 3300010, 3400010, 3400009
1693, 3300010, 3300011, 3400011, 3400010
1694, 3300011, 3300012, 3400012, 3400011
1695, 3300012, 3300013, 3400013, 3400012
1696, 3300013, 3300014, 3400014, 3400013
1697, 3300014, 3300015, 3400015, 3400014
1698, 3300015, 3300016, 3400016, 3400015
1699, 3300016, 3300017, 3400017, 3400016
1700, 3300017, 3300018, 3400018, 3400017
1701, 3300018, 3300019, 3400019, 3400018
1702, 3300019, 3300020, 3400020, 3400019
1703, 3300020, 3300021, 3400021, 3400020
1704, 3300021, 3300022, 3400022, 3400021
1705, 3300022, 3300023, 3400023, 3400022
1706, 3300023, 3300024, 3400024, 3400023
1707, 3300024, 3300025, 3400025, 3400024
1708, 3300025, 3300026, 3400026, 3400025
1709, 3300026, 3300027, 3400027, 3400026
1710, 3300027, 3300028, 3400028, 3400027
1711, 3300028, 3300029, 3400029, 3400028
1712, 3300029, 3300030, 3400030, 3400029
1713, 3300030, 3300031, 3400031, 3400030
1714, 3300031, 3300032, 3400032, 3400031
1715, 3300032, 3300033, 3400033, 3400032
1716, 3300033, 3300034, 3400034, 3400033
1717, 3300034, 3300035, 3400035, 3400034
1718, 3300035, 3300036, 3400036, 3400035
1719, 3300036, 3300037, 3400037, 3400036
1720, 3300037, 3300038, 3400038, 3400037
1721, 3300038, 3300039, 3400039, 3400038
1722, 3300039, 3300040, 3400040, 3400039
1723, 3300040, 3300041, 3400041, 3400040
1724, 3300041, 3300042, 3400042, 3400041
1725, 3300042, 3300043, 3400043, 3400042
1726, 3300043, 3300044, 3400044, 3400043
1727, 3300044, 3300045, 3400045, 3400044
1728, 3300045, 3300046, 3400046, 3400045
1729, 3300046, 3300047, 3400047, 3400046
1730, 3300047, 3300048, 3400048, 3400047
1731, 3300048, 3300049, 3400049, 3400048
1732, 3300049, 3300050, 3400050, 3400049
1733, 3300050, 3300051, 3400051, 3400050
1734, 3300051, 3300052, 3400052, 3400051
1735, 3400001, 3400002, 3500002, 3500001
1736, 3400002, 3400003, 3500003, 3500002
1737, 3400003, 3400004, 3500004, 3500003
1738, 3400004, 3400005, 3500005, 3500004
1739, 3400005, 3400006, 3500006, 3500005
1740, 3400006, 3400007, 3500007, 3500006
1741, 3400007, 3400008, 3500008, 3500007
1742, 3400008, 3400009, 3500009, 3500008
1743, 3400009, 3400010, 3500010, 3500009
1744, 3400010, 3400011, 3500011, 3500010
1745, 3400011, 3400012, 3500012, 3500011
1746, 3400012, 3400013, 3500013, 3500012
1747, 3400013, 3400014, 3500014, 3500013
1748, 3400014, 3400015, 3500015, 3500014
1749, 3400015, 3400016, 3500016, 3500015
1750, 3400016, 3400017, 3500017, 3500016
1751, 3400017, 3400018, 3500018, 3500017
1752, 3400018, 3400019, 3500019, 3500018
1753, 3400019, 3400020, 3500020, 3500019
1754, 3400020, 3400021, 3500021, 3500020
1755, 3400021, 3400022, 3500022, 3500021
1756, 3400022, 3400023, 3500023, 3500022
1757, 3400023, 3400024, 3500024, 3500023
1758, 3400024, 3400025, 3500025, 3500024
1759, 3400025, 3400026, 3500026, 3500025
1760, 3400026, 3400027, 3500027, 3500026
1761, 3400027, 3400028, 3500028, 3500027
1762, 3400028, 3400029, 3500029, 3500028
1763, 3400029, 3400030, 3500030, 3500029
1764, 3400030, 3400031, 3500031, 3500030
1765, 3400031, 3400032, 3500032, 3500031
1766, 3400032, 3400033, 3500033, 3500032
1767, 3400033, 3400034, 3500034, 3500033
1768, 3400034, 3400035, 3500035, 3500034
1769, 3400035, 3400036, 3500036, 3500035
1770, 3400036, 3400037, 3500037, 3500036
1771, 3400037, 3400038, 3500038, 3500037
1772, 3400038, 3400039, 3500039, 3500038
1773, 3400039, 3400040, 3500040, 3500039
1774, 3400040, 3400041, 3500041, 3500040
1775, 3400041, 3400042, 3500042, 3500041
1776, 3400042, 3400043, 3500043, 3500042
1777, 3400043, 3400044, 3500044, 3500043
1778, 3400044, 3400045, 3500045, 3500044
1779, 3400045, 3400046, 3500046, 3500045
1780, 3400046, 3400047, 3500047, 3500046
1781, 3400047, 3400048, 3500048, 3500047
1782, 3400048, 3400049, 3500049, 3500048
1783, 3400049, 3400050, 3500050, 3500049
1784, 3400050, 3400051, 3500051, 3500050
1785, 3400051, 3400052, 3500052, 3500051
1786, 3500001, 3500002, 3600002, 3600001
1787, 3500002, 3500003, 3600003, 3600002
1788, 3500003, 3500004, 3600004, 3600003
1789, 3500004, 3500005, 3600005, 3600004
1790, 3500005, 3500006, 3600006, 3600005
1791, 3500006, 3500007, 3600007, 3600006
1792, 3500007, 3500008, 3600008, 3600007
1793, 3500008, 3500009, 3600009, 3600008
1794, 3500009, 3500010, 3600010, 3600009
1795, 3500010, 3500011, 3600011, 3600010
1796, 3500011, 3500012, 3600012, 3600011
1797, 3500012, 3500013, 3600013, 3600012
1798, 3500013, 3500014, 3600014, 3600013
1799, 3500014, 3500015, 3600015, 3600014
1800, 3500015, 3500016, 3600016, 3600015
1801, 3500016, 3500017, 3600017, 3600016
1802, 3500017, 3500018, 3600018, 3600017
1803, 3500018, 3500019, 3600019, 3600018
1804, 3500019, 3500020, 3600020, 3600019
1805, 3500020, 3500021, 3600021, 3600020
1806, 3500021, 3500022, 3600022, 3600021
1807, 3500022, 3500023, 3600023, 3600022
1808, 3500023, 3500024, 3600024, 3600023
1809, 3500024, 3500025, 3600025, 3600024
1810, 3500025, 3500026, 3600026, 3600025
1811, 3500026, 3500027, 3600027, 3600026
1812, 3500027, 3500028, 3600028, 3600027
1813, 3500028, 3500029, 3600029, 3600028
1814, 3500029, 3500030, 3600030, 3600029
1815, 3500030, 3500031, 3600031, 3600030
1816, 3500031, 3500032, 3600032, 3600031
1817, 3500032, 3500033, 3600033, 3600032
1818, 3500033, 3500034, 3600034, 3600033
1819, 3500034, 3500035, 3600035, 3600034
1820, 3500035, 3500036, 3600036, 3600035
1821, 3500036, 3500037, 3600037, 3600036
1822, 3500037, 3500038, 3600038, 3600037
1823, 3500038, 3500039, 3600039, 3600038
1824, 3500039, 3500040, 3600040, 3600039
1825, 3500040, 3500041, 3600041, 3600040
1826, 3500041, 3500042, 3600042, 3600041
1827, 3500042, 3500043, 3600043, 3600042
1828, 3500043, 3500044, 3600044, 3600043
1829, 3500044, 3500045, 3600045, 3600044
1830, 3500045, 3500046, 3600046, 3600045
1831, 3500046, 3500047, 3600047, 3600046
1832, 3500047, 3500048, 3600048, 3600047
1833, 3500048, 3500049, 3600049, 3600048
1834, 3500049, 3500050, 3600050, 3600049
1835, 3500050, 3500051, 3600051, 3600050
1836, 3500051, 3500052, 3600052, 3600051
1837, 3600001, 3600002, 3700002, 3700001
1838, 3600002, 3600003, 3700003, 3700002
1839, 3600003, 3600004, 3700004, 3700003
1840, 3600004, 3600005, 3700005, 3700004
1841, 3600005, 3600006, 3700006, 3700005
1842, 3600006, 3600007, 3700007, 3700006
1843, 3600007, 3600008, 3700008, 3700007
1844, 3600008, 3600009, 3700009, 3700008
1845, 3600009, 3600010, 3700010, 3700009
1846, 3600010, 3600011, 3700011, 3700010
1847, 3600011, 3600012, 3700012, 3700011
1848, 3600012, 3600013, 3700013, 3700012
1849, 3600013, 3600014, 3700014, 3700013
1850, 3600014, 3600015, 3700015, 3700014
1851, 3600015, 3600016, 3700016, 3700015
1852, 3600016, 3600017, 3700017, 3700016
1853, 3600017, 3600018, 3700018, 3700017
1854, 3600018, 3600019, 3700019, 3700018
1855, 3600019, 3600020, 3700020, 3700019
1856, 3600020, 3600021, 3700021, 3700020
1857, 3600021, 3600022, 3700022, 3700021
1858, 3600022, 3600023, 3700023, 3700022
1859, 3600023, 3600024, 3700024, 3700023
1860, 3600024, 3600025, 3700025, 3700024
1861, 3600025, 3600026, 3700026, 3700025
1862, 3600026, 3600027, 3700027, 3700026
1863, 3600027, 3600028, 3700028, 3700027
1864, 3600028, 3600029, 3700029, 3700028
1865, 3600029, 3600030, 3700030, 3700029
1866, 3600030, 3600031, 3700031, 3700030
1867, 3600031, 3600032, 3700032, 3700031
1868, 3600032, 3600033, 3700033, 3700032
1869, 3600033, 3600034, 3700034, 3700033
1870, 3600034, 3600035, 3700035, 3700034
1871, 3600035, 3600036, 3700036, 3700035
1872, 3600036, 3600037, 3700037, 3700036
1873, 3600037, 3600038, 3700038, 3700037
1874, 3600038, 3600039, 3700039, 3700038
1875, 3600039, 3600040, 3700040, 3700039
1876, 3600040, 3600041, 3700041, 3700040
1877, 3600041, 3600042, 3700042, 3700041
1878, 3600042, 3600043, 3700043, 3700042
1879, 3600043, 3600044, 3700044, 3700043
1880, 3600044, 3600045, 3700045, 3700044
1881, 3600045, 3600046, 3700046, 3700045
1882, 3600046, 3600047, 3700047, 3700046
1883, 3600047, 3600048, 3700048, 3700047
1884, 3600048, 3600049, 3700049, 3700048
1885, 3600049, 3600050, 3700050, 3700049
1886, 3600050, 3600051, 3700051, 3700050
1887, 3600051, 3600052, 3700052, 3700051
1888, 3700001, 3700002, 3800002, 3800001
1889, 3700002, 3700003, 3800003, 3800002
1890, 3700003, 3700004, 3800004, 3800003
1891, 3700004, 3700005, 3800005, 3800004
1892, 3700005, 3700006, 3800006, 3800005
1893, 3700006, 3700007, 3800007, 3800006
1894, 3700007, 3700008, 3800008, 3800007
1895, 3700008, 3700009, 3800009, 3800008
1896, 3700009, 3700010, 3800010, 3800009
1897, 3700010, 3700011, 3800011, 3800010
1898, 3700011, 3700012, 3800012, 3800011
1899, 3700012, 3700013, 3800013, 3800012
1900, 3700013, 3700014, 3800014, 3800013
1901, 3700014, 3700015, 3800015, 3800014
1902, 3700015, 3700016, 3800016, 3800015
1903, 3700016, 3700017, 3800017, 3800016
1904, 3700017, 3700018, 3800018, 3800017
1905, 3700018, 3700019, 3800019, 3800018
1906, 3700019, 3700020, 3800020, 3800019
1907, 3700020, 3700021, 3800021, 3800020
1908, 3700021, 3700022, 3800022, 3800021
1909, 3700022, 3700023, 3800023, 3800022
1910, 3700023, 3700024, 3800024, 3800023
1911, 3700024, 3700025, 3800025, 3800024
1912, 3700025, 3700026, 3800026, 3800025
1913, 3700026, 3700027, 3800027, 3800026
1914, 3700027, 3700028, 3800028, 3800027
1915, 3700028, 3700029, 3800029, 3800028
1916, 3700029, 3700030, 3800030, 3800029
1917, 3700030, 3700031, 3800031, 3800030
1918, 3700031, 3700032, 3800032, 3800031
1919, 3700032, 3700033, 3800033, 3800032
1920, 3700033, 3700034, 3800034, 3800033
1921, 3700034, 3700035, 3800035, 3800034
1922, 3700035, 3700036, 3800036, 3800035
1923, 3700036, 3700037, 3800037, 3800036
1924, 3700037, 3700038, 3800038, 3800037
1925, 3700038, 3700039, 3800039, 3800038
1926, 3700039, 3700040, 3800040, 3800039
1927, 3700040, 3700041, 3800041, 3800040
1928, 3700041, 3700042, 3800042, 3800041
1929, 3700042, 3700043, 3800043, 3800042
1930, 3700043, 3700044, 3800044, 3800043
1931, 3700044, 3700045, 3800045, 3800044
1932, 3700045, 3700046, 3800046, 3800045
1933, 3700046, 3700047, 3800047, 3800046
1934, 3700047, 3700048, 3800048, 3800047
1935, 3700048, 3700049, 3800049, 3800048
1936, 3700049, 3700050, 3800050, 3800049
1937, 3700050, 3700051, 3800051, 3800050
1938, 3700051, 3700052, 3800052, 3800051
1939, 3800001, 3800002, 3900002, 3900001
1940, 3800002, 3800003, 3900003, 3900002
1941, 3800003, 3800004, 3900004, 3900003
1942, 3800004, 3800005, 3900005, 3900004
1943, 3800005, 3800006, 3900006, 3900005
1944, 3800006, 3800007, 3900007, 3900006
1945, 3800007, 3800008, 3900008, 3900007
1946, 3800008, 3800009, 3900009, 3900008
1947, 3800009, 3800010, 3900010, 3900009
1948, 3800010, 3800011, 3900011, 3900010
1949, 3800011, 3800012, 3900012, 3900011
1950, 3800012, 3800013, 3900013, 3900012
1951, 3800013, 3800014, 3900014, 3900013
1952, 3800014, 3800015, 3900015, 3900014
1953, 3800015, 3800016, 3900016, 3900015
1954, 3800016, 3800017, 3900017, 3900016
1955, 3800017, 3800018, 3900018, 3900017
1956, 3800018, 3800019, 3900019, 3900018
1957, 3800019, 3800020, 3900020, 3900019
1958, 3800020, 3800021, 3900021, 3900020
1959, 3800021, 3800022, 3900022, 3900021
1960, 3800022, 3800023, 3900023, 3900022
1961, 3800023, 3800024, 3900024, 3900023
1962, 3800024, 3800025, 3900025, 3900024
1963, 3800025, 3800026, 3900026, 3900025
1964, 3800026, 3800027, 3900027, 3900026
1965, 3800027, 3800028, 3900028, 3900027
1966, 3800028, 3800029, 3900029, 3900028
1967, 3800029, 3800030, 3900030, 3900029
1968, 3800030, 3800031, 3900031, 3900030
1969, 3800031, 3800032, 3900032, 3900031
1970, 3800032, 3800033, 3900033, 3900032
1971, 3800033, 3800034, 3900034, 3900033
1972, 3800034, 3800035, 3900035, 3900034
1973, 3800035, 3800036, 3900036, 3900035
1974, 3800036, 3800037, 3900037, 3900036
1975, 3800037, 3800038, 3900038, 3900037
1976, 3800038, 3800039, 3900039, 3900038
1977, 3800039, 3800040, 3900040, 3900039
1978, 3800040, 3800041, 3900041, 3900040
1979, 3800041, 3800042, 3900042, 3900041
1980, 3800042, 3800043, 3900043, 3900042
1981, 3800043, 3800044, 3900044, 3900043
1982, 3800044, 3800045, 3900045, 3900044
1983, 3800045, 3800046, 3900046, 3900045
1984, 3800046, 3800047, 3900047, 3900046
1985, 3800047, 3800048, 3900048, 3900047
1986, 3800048, 3800049, 3900049, 3900048
1987, 3800049, 3800050, 3900050, 3900049
1988, 3800050, 3800051, 3900051, 3900050
1989, 3800051, 3800052, 3900052, 3900051
1990, 3900001, 3900002, 4000002, 4000001
1991, 3900002, 3900003, 4000003, 4000002
1992, 3900003, 3900004, 4000004, 4000003
1993, 3900004, 3900005, 4000005, 4000004
1994, 3900005, 3900006, 4000006, 4000005
1995, 3900006, 3900007, 4000007, 4000006
1996, 3900007, 3900008, 4000008, 4000007
1997, 3900008, 3900009, 4000009, 4000008
1998, 3900009, 3900010, 4000010, 4000009
1999, 3900010, 3900011, 4000011, 4000010
2000, 3900011, 3900012, 4000012, 4000011
2001, 3900012, 3900013, 4000013, 4000012
2002, 3900013, 3900014, 4000014, 4000013
2003, 3900014, 3900015, 4000015, 4000014
2004, 3900015, 3900016, 4000016, 4000015
2005, 3900016, 3900017, 4000017, 4000016
2006, 3900017, 3900018, 4000018, 4000017
2007, 3900018, 3900019, 4000019, 4000018
2008, 3900019, 3900020, 4000020, 4000019
2009, 3900020, 3900021, 4000021, 4000020
2010, 3900021, 3900022, 4000022, 4000021
2011, 3900022, 3900023, 4000023, 4000022
2012, 3900023, 3900024, 4000024, 4000023
2013, 3900024, 3900025, 4000025, 4000024
2014, 3900025, 3900026, 4000026, 4000025
2015, 3900026, 3900027, 4000027, 4000026
2016, 3900027, 3900028, 4000028, 4000027
2017, 3900028, 3900029, 4000029, 4000028
2018, 3900029, 3900030, 4000030, 4000029
2019, 3900030, 3900031, 4000031, 4000030
2020, 3900031, 3900032, 4000032, 4000031
2021, 3900032, 3900033, 4000033, 4000032
2022, 3900033, 3900034, 4000034, 4000033
2023, 3900034, 3900035, 4000035, 4000034
2024, 3900035, 3900036, 4000036, 4000035
2025, 3900036, 3900037, 4000037, 4000036
2026, 3900037, 3900038, 4000038, 4000037
2027, 3900038, 3900039, 4000039, 4000038
2028, 3900039, 3900040, 4000040, 4000039
2029, 3900040, 3900041, 4000041, 4000040
2030, 3900041, 3900042, 4000042, 4000041
2031, 3900042, 3900043, 4000043, 4000042
2032, 3900043, 3900044, 4000044, 4000043
2033, 3900044, 3900045, 4000045, 4000044
2034, 3900045, 3900046, 4000046, 4000045
2035, 3900046, 3900047, 4000047, 4000046
2036, 3900047, 3900048, 4000048, 4000047
2037, 3900048, 3900049, 4000049, 4000048
2038, 3900049, 3900050, 4000050, 4000049
2039, 3900050, 3900051, 4000051, 4000050
2040, 3900051, 3900052, 4000052, 4000051
2041, 4000001, 4000002, 4100002, 4100001
2042, 4000002, 4000003, 4100003, 4100002
2043, 4000003, 4000004, 4100004, 4100003
2044, 4000004, 4000005, 4100005, 4100004
2045, 4000005, 4000006, 4100006, 4100005
2046, 4000006, 4000007, 4100007, 4100006
2047, 4000007, 4000008, 4100008, 4100007
2048, 4000008, 4000009, 4100009, 4100008
2049, 4000009, 4000010, 4100010, 4100009
2050, 4000010, 4000011, 4100011, 4100010
2051, 4000011, 4000012, 4100012, 4100011
2052, 4000012, 4000013, 4100013, 4100012
2053, 4000013, 4000014, 4100014, 4100013
2054, 4000014, 4000015, 4100015, 4100014
2055, 4000015, 4000016, 4100016, 4100015
2056, 4000016, 4000017, 4100017, 4100016
2057, 4000017, 4000018, 4100018, 4100017
2058, 4000018, 4000019, 4100019, 4100018
2059, 4000019, 4000020, 4100020, 4100019
2060, 4000020, 4000021, 4100021, 4100020
2061, 4000021, 4000022, 4100022, 4100021
2062, 4000022, 4000023, 4100023, 4100022
2063, 4000023, 4000024, 4100024, 4100023
2064, 4000024, 4000025, 4100025, 4100024
2065, 4000025, 4000026, 4100026, 4100025
2066, 4000026, 4000027, 4100027, 4100026
2067, 4000027, 4000028, 4100028, 4100027
2068, 4000028, 4000029, 4100029, 4100028
2069, 4000029, 4000030, 4100030, 4100029
2070, 4000030, 4000031, 4100031, 4100030
2071, 4000031, 4000032, 4100032, 4100031
2072, 4000032, 4000033, 4100033, 4100032
2073, 4000033, 4000034, 4100034, 4100033
2074, 4000034, 4000035, 4100035, 4100034
2075, 4000035, 4000036, 4100036, 4100035
2076, 4000036, 4000037, 4100037, 4100036
2077, 4000037, 4000038, 4100038, 4100037
2078, 4000038, 4000039, 4100039, 4100038
2079, 4000039, 4000040, 4100040, 4100039
2080, 4000040, 4000041, 4100041, 4100040
2081, 4000041, 4000042, 4100042, 4100041
2082, 4000042, 4000043, 4100043, 4100042
2083, 4000043, 4000044, 4100044, 4100043
2084, 4000044, 4000045, 4100045, 4100044
2085, 4000045, 4000046, 4100046, 4100045
2086, 4000046, 4000047, 4100047, 4100046
2087, 4000047, 4000048, 4100048, 4100047
2088, 4000048, 4000049, 4100049, 4100048
2089, 4000049, 4000050, 4100050, 4100049
2090, 4000050, 4000051, 4100051, 4100050
2091, 4000051, 4000052, 4100052, 4100051
2092, 4100001, 4100002, 4200002, 4200001
2093, 4100002, 4100003, 4200003, 4200002
2094, 4100003, 4100004, 4200004, 4200003
2095, 4100004, 4100005, 4200005, 4200004
2096, 4100005, 4100006, 4200006, 4200005
2097, 4100006, 4100007, 4200007, 4200006
2098, 4100007, 4100008, 4200008, 4200007
2099, 4100008, 4100009, 4200009, 4200008
2100, 4100009, 4100010, 4200010, 4200009
2101, 4100010, 4100011, 4200011, 4200010
2102, 4100011, 4100012, 4200012, 4200011
2103, 4100012, 4100013, 4200013, 4200012
2104, 4100013, 4100014, 4200014, 4200013
2105, 4100014, 4100015, 4200015, 4200014
2106, 4100015, 4100016, 4200016, 4200015
2107, 4100016, 4100017, 4200017, 4200016
2108, 4100017, 4100018, 4200018, 4200017
2109, 4100018, 4100019, 4200019, 4200018
2110, 4100019, 4100020, 4200020, 4200019
2111, 4100020, 4100021, 4200021, 4200020
2112, 4100021, 4100022, 4200022, 4200021
2113, 4100022, 4100023, 4200023, 4200022
2114, 4100023, 4100024, 4200024, 4200023
2115, 4100024, 4100025, 4200025, 4200024
2116, 4100025, 4100026, 4200026, 4200025
2117, 4100026, 4100027, 4200027, 4200026
2118, 4100027, 4100028, 4200028, 4200027
2119, 4100028, 4100029, 4200029, 4200028
2120, 4100029, 4100030, 4200030, 4200029
2121, 4100030, 4100031, 4200031, 4200030
2122, 4100031, 4100032, 4200032, 4200031
2123, 4100032, 4100033, 4200033, 4200032
2124, 4100033, 4100034, 4200034, 4200033
2125, 4100034, 4100035, 4200035, 4200034
2126, 4100035, 4100036, 4200036, 4200035
2127, 4100036, 4100037, 4200037, 4200036
2128, 4100037, 4100038, 4200038, 4200037
2129, 4100038, 4100039, 4200039, 4200038
2130, 4100039, 4100040, 4200040, 4200039
2131, 4100040, 4100041, 4200041, 4200040
2132, 4100041, 4100042, 4200042, 4200041
2133, 4100042, 4100043, 4200043, 4200042
2134, 4100043, 4100044, 4200044, 4200043
2135, 4100044, 4100045, 4200045, 4200044
2136, 4100045, 4100046, 4200046, 4200045
2137, 4100046, 4100047, 4200047, 4200046
2138, 4100047, 4100048, 4200048, 4200047
2139, 4100048, 4100049, 4200049, 4200048
2140, 4100049, 4100050, 4200050, 4200049
2141, 4100050, 4100051, 4200051, 4200050
2142, 4100051, 4100052, 4200052, 4200051
2143, 4200001, 4200002, 4300002, 4300001
2144, 4200002, 4200003, 4300003, 4300002
2145, 4200003, 4200004, 4300004, 4300003
2146, 4200004, 4200005, 4300005, 4300004
2147, 4200005, 4200006, 4300006, 4300005
2148, 4200006, 4200007, 4300007, 4300006
2149, 4200007, 4200008, 4300008, 4300007
2150, 4200008, 4200009, 4300009, 4300008
2151, 4200009, 4200010, 4300010, 4300009
2152, 4200010, 4200011, 4300011, 4300010
2153, 4200011, 4200012, 4300012, 4300011
2154, 4200012, 4200013, 4300013, 4300012
2155, 4200013, 4200014, 4300014, 4300013
2156, 4200014, 4200015, 4300015, 4300014
2157, 4200015, 4200016, 4300016, 4300015
2158, 4200016, 4200017, 4300017, 4300016
2159, 4200017, 4200018, 4300018, 4300017
2160, 4200018, 4200019, 4300019, 4300018
2161, 4200019, 4200020, 4300020, 4300019
2162, 4200020, 4200021, 4300021, 4300020
2163, 4200021, 4200022, 4300022, 4300021
2164, 4200022, 4200023, 4300023, 4300022
2165, 4200023, 4200024, 4300024, 4300023
2166, 4200024, 4200025, 4300025, 4300024
2167, 4200025, 4200026, 4300026, 4300025
2168, 4200026, 4200027, 4300027, 4300026
2169, 4200027, 4200028, 4300028, 4300027
2170, 4200028, 4200029, 4300029, 4300028
2171, 4200029, 4200030, 4300030, 4300029
2172, 4200030, 4200031, 4300031, 4300030
2173, 4200031, 4200032, 4300032, 4300031
2174, 4200032, 4200033, 4300033, 4300032
2175, 4200033, 4200034, 4300034, 4300033
2176, 4200034, 4200035, 4300035, 4300034
2177, 4200035, 4200036, 4300036, 4300035
2178, 4200036, 4200037, 4300037, 4300036
2179, 4200037, 4200038, 4300038, 4300037
2180, 4200038, 4200039, 4300039, 4300038
2181, 4200039, 4200040, 4300040, 4300039
2182, 4200040, 4200041, 4300041, 4300040
2183, 4200041, 4200042, 4300042, 4300041
2184, 4200042, 4200043, 4300043, 4300042
2185, 4200043, 4200044, 4300044, 4300043
2186, 4200044, 4200045, 4300045, 4300044
2187, 4200045, 4200046, 4300046, 4300045
2188, 4200046, 4200047, 4300047, 4300046
2189, 4200047, 4200048, 4300048, 4300047
2190, 4200048, 4200049, 4300049, 4300048
2191, 4200049, 4200050, 4300050, 4300049
2192, 4200050, 4200051, 4300051, 4300050
2193, 4200051, 4200052, 4300052, 4300051
2194, 4300001, 4300002, 4400002, 4400001
2195, 4300002, 4300003, 4400003, 4400002
2196, 4300003, 4300004, 4400004, 4400003
2197, 4300004, 4300005, 4400005, 4400004
2198, 4300005, 4300006, 4400006, 4400005
2199, 4300006, 4300007, 4400007, 4400006
2200, 4300007, 4300008, 4400008, 4400007
2201, 4300008, 4300009, 4400009, 4400008
2202, 4300009, 4300010, 4400010, 4400009
2203, 4300010, 4300011, 4400011, 4400010
2204, 4300011, 4300012, 4400012, 4400011
2205, 4300012, 4300013, 4400013, 4400012
2206, 4300013, 4300014, 4400014, 4400013
2207, 4300014, 4300015, 4400015, 4400014
2208, 4300015, 4300016, 4400016, 4400015
2209, 4300016, 4300017, 4400017, 4400016
2210, 4300017, 4300018, 4400018, 4400017
2211, 4300018, 4300019, 4400019, 4400018
2212, 4300019, 4300020, 4400020, 4400019
2213, 4300020, 4300021, 4400021, 4400020
2214, 4300021, 4300022, 4400022, 4400021
2215, 4300022, 4300023, 4400023, 4400022
2216, 4300023, 4300024, 4400024, 4400023
2217, 4300024, 4300025, 4400025, 4400024
2218, 4300025, 4300026, 4400026, 4400025
2219, 4300026, 4300027, 4400027, 4400026
2220, 4300027, 4300028, 4400028, 4400027
2221, 4300028, 4300029, 4400029, 4400028
2222, 4300029, 4300030, 4400030, 4400029
2223, 4300030, 4300031, 4400031, 4400030
2224, 4300031, 4300032, 4400032, 4400031
2225, 4300032, 4300033, 4400033, 4400032
2226, 4300033, 4300034, 4400034, 4400033
2227, 4300034, 4300035, 4400035, 4400034
2228, 4300035, 4300036, 4400036, 4400035
2229, 4300036, 4300037, 4400037, 4400036
2230, 4300037, 4300038, 4400038, 4400037
2231, 4300038, 4300039, 4400039, 4400038
2232, 4300039, 4300040, 4400040, 4400039
2233, 4300040, 4300041, 4400041, 4400040
2234, 4300041, 4300042, 4400042, 4400041
2235, 4300042, 4300043, 4400043, 4400042
2236, 4300043, 4300044, 4400044, 4400043
2237, 4300044, 4300045, 4400045, 4400044
2238, 4300045, 4300046, 4400046, 4400045
2239, 4300046, 4300047, 4400047, 4400046
2240, 4300047, 4300048, 4400048, 4400047
2241, 4300048, 4300049, 4400049, 4400048
2242, 4300049, 4300050, 4400050, 4400049
2243, 4300050, 4300051, 4400051, 4400050
2244, 4300051, 4300052, 4400052, 4400051
2245, 4400001, 4400002, 4500002, 4500001
2246, 4400002, 4400003, 4500003, 4500002
2247, 4400003, 4400004, 4500004, 4500003
2248, 4400004, 4400005, 4500005, 4500004
2249, 4400005, 4400006, 4500006, 4500005
2250, 4400006, 4400007, 4500007, 4500006
2251, 4400007, 4400008, 4500008, 4500007
2252, 4400008, 4400009, 4500009, 4500008
2253, 4400009, 4400010, 4500010, 4500009
2254, 4400010, 4400011, 4500011, 4500010
2255, 4400011, 4400012, 4500012, 4500011
2256, 4400012, 4400013, 4500013, 4500012
2257, 4400013, 4400014, 4500014, 4500013
2258, 4400014, 4400015, 4500015, 4500014
2259, 4400015, 4400016, 4500016, 4500015
2260, 4400016, 4400017, 4500017, 4500016
2261, 4400017, 4400018, 4500018, 4500017
2262, 4400018, 4400019, 4500019, 4500018
2263, 4400019, 4400020, 4500020, 4500019
2264, 4400020, 4400021, 4500021, 4500020
2265, 4400021, 4400022, 4500022, 4500021
2266, 4400022, 4400023, 4500023, 4500022
2267, 4400023, 4400024, 4500024, 4500023
2268, 4400024, 4400025, 4500025, 4500024
2269, 4400025, 4400026, 4500026, 4500025
2270, 4400026, 4400027, 4500027, 4500026
2271, 4400027, 4400028, 4500028, 4500027
2272, 4400028, 4400029, 4500029, 4500028
2273, 4400029, 4400030, 4500030, 4500029
2274, 4400030, 4400031, 4500031, 4500030
2275, 4400031, 4400032, 4500032, 4500031
2276, 4400032, 4400033, 4500033, 4500032
2277, 4400033, 4400034, 4500034, 4500033
2278, 4400034, 4400035, 4500035, 4500034
2279, 4400035, 4400036, 4500036, 4500035
2280, 4400036, 4400037, 4500037, 4500036
2281, 4400037, 4400038, 4500038, 4500037
2282, 4400038, 4400039, 4500039, 4500038
2283, 4400039, 4400040, 4500040, 4500039
2284, 4400040, 4400041, 4500041, 4500040
2285, 4400041, 4400042, 4500042, 4500041
2286, 4400042, 4400043, 4500043, 4500042
2287, 4400043, 4400044, 4500044, 4500043
2288, 4400044, 4400045, 4500045, 4500044
2289, 4400045, 4400046, 4500046, 4500045
2290, 4400046, 4400047, 4500047, 4500046
2291, 4400047, 4400048, 4500048, 4500047
2292, 4400048, 4400049, 4500049, 4500048
2293, 4400049, 4400050, 4500050, 4500049
2294, 4400050, 4400051, 4500051, 4500050
2295, 4400051, 4400052, 4500052, 4500051
2296, 4500001, 4500002, 4600002, 4600001
2297, 4500002, 4500003, 4600003, 4600002
2298, 4500003, 4500004, 4600004, 4600003
2299, 4500004, 4500005, 4600005, 4600004
2300, 4500005, 4500006, 4600006, 4600005
2301, 4500006, 4500007, 4600007, 4600006
2302, 4500007, 4500008, 4600008, 4600007
2303, 4500008, 4500009, 4600009, 4600008
2304, 4500009, 4500010, 4600010, 4600009
2305, 4500010, 4500011, 4600011, 4600010
2306, 4500011, 4500012, 4600012, 4600011
2307, 4500012, 4500013, 4600013, 4600012
2308, 4500013, 4500014, 4600014, 4600013
2309, 4500014, 4500015, 4600015, 4600014
2310, 4500015, 4500016, 4600016, 4600015
2311, 4500016, 4500017, 4600017, 4600016
2312, 4500017, 4500018, 4600018, 4600017
2313, 4500018, 4500019, 4600019, 4600018
2314, 4500019, 4500020, 4600020, 4600019
2315, 4500020, 4500021, 4600021, 4600020
2316, 4500021, 4500022, 4600022, 4600021
2317, 4500022, 4500023, 4600023, 4600022
2318, 4500023, 4500024, 4600024, 4600023
2319, 4500024, 4500025, 4600025, 4600024
2320, 4500025, 4500026, 4600026, 4600025
2321, 4500026, 4500027, 4600027, 4600026
2322, 4500027, 4500028, 4600028, 4600027
2323, 4500028, 4500029, 4600029, 4600028
2324, 4500029, 4500030, 4600030, 4600029
2325, 4500030, 4500031, 4600031, 4600030
2326, 4500031, 4500032, 4600032, 4600031
2327, 4500032, 4500033, 4600033, 4600032
2328, 4500033, 4500034, 4600034, 4600033
2329, 4500034, 4500035, 4600035, 4600034
2330, 4500035, 4500036, 4600036, 4600035
2331, 4500036, 4500037, 4600037, 4600036
2332, 4500037, 4500038, 4600038, 4600037
2333, 4500038, 4500039, 4600039, 4600038
2334, 4500039, 4500040, 4600040, 4600039
2335, 4500040, 4500041, 4600041, 4600040
2336, 4500041, 4500042, 4600042, 4600041
2337, 4500042, 4500043, 4600043, 4600042
2338, 4500043, 4500044, 4600044, 4600043
2339, 4500044, 4500045, 4600045, 4600044
2340, 4500045, 4500046, 4600046, 4600045
2341, 4500046, 4500047, 4600047, 4600046
2342, 4500047, 4500048, 4600048, 4600047
2343, 4500048, 4500049, 4600049, 4600048
2344, 4500049, 4500050, 4600050, 4600049
2345, 4500050, 4500051, 4600051, 4600050
2346, 4500051, 4500052, 4600052, 4600051
2347, 4600001, 4600002, 4700002, 4700001
2348, 4600002, 4600003, 4700003, 4700002
2349, 4600003, 4600004, 4700004, 4700003
2350, 4600004, 4600005, 4700005, 4700004
2351, 4600005, 4600006, 4700006, 4700005
2352, 4600006, 4600007, 4700007, 4700006
2353, 4600007, 4600008, 4700008, 4700007
2354, 4600008, 4600009, 4700009, 4700008
2355, 4600009, 4600010, 4700010, 4700009
2356, 4600010, 4600011, 4700011, 4700010
2357, 4600011, 4600012, 4700012, 4700011
2358, 4600012, 4600013, 4700013, 4700012
2359, 4600013, 4600014, 4700014, 4700013
2360, 4600014, 4600015, 4700015, 4700014
2361, 4600015, 4600016, 4700016, 4700015
2362, 4600016, 4600017, 4700017, 4700016
2363, 4600017, 4600018, 4700018, 4700017
2364, 4600018, 4600019, 4700019, 4700018
2365, 4600019, 4600020, 4700020, 4700019
2366, 4600020, 4600021, 4700021, 4700020
2367, 4600021, 4600022, 4700022, 4700021
2368, 4600022, 4600023, 4700023, 4700022
2369, 4600023, 4600024, 4700024, 4700023
2370, 4600024, 4600025, 4700025, 4700024
2371, 4600025, 4600026, 4700026, 4700025
2372, 4600026, 4600027, 4700027, 4700026
2373, 4600027, 4600028, 4700028, 4700027
2374, 4600028, 4600029, 4700029, 4700028
2375, 4600029, 4600030, 4700030, 4700029
2376, 4600030, 4600031, 4700031, 4700030
2377, 4600031, 4600032, 4700032, 4700031
2378, 4600032, 4600033, 4700033, 4700032
2379, 4600033, 4600034, 4700034, 4700033
2380, 4600034, 4600035, 4700035, 4700034
2381, 4600035, 4600036, 4700036, 4700035
2382, 4600036, 4600037, 4700037, 4700036
2383, 4600037, 4600038, 4700038, 4700037
2384, 4600038, 4600039, 4700039, 4700038
2385, 4600039, 4600040, 4700040, 4700039
2386, 4600040, 4600041, 4700041, 4700040
2387, 4600041, 4600042, 4700042, 4700041
2388, 4600042, 4600043, 4700043, 4700042
2389, 4600043, 4600044, 4700044, 4700043
2390, 4600044, 4600045, 4700045, 4700044
2391, 4600045, 4600046, 4700046, 4700045
2392, 4600046, 4600047, 4700047, 4700046
2393, 4600047, 4600048, 4700048, 4700047
2394, 4600048, 4600049, 4700049, 4700048
2395, 4600049, 4600050, 4700050, 4700049
2396, 4600050, 4600051, 4700051, 4700050
2397, 4600051, 4600052, 4700052, 4700051
2398, 4700001, 4700002, 4800002, 4800001
2399, 4700002, 4700003, 4800003, 4800002
2400, 4700003, 4700004, 4800004, 4800003
2401, 4700004, 4700005, 4800005, 4800004
2402, 4700005, 4700006, 4800006, 4800005
2403, 4700006, 4700007, 4800007, 4800006
2404, 4700007, 4700008, 4800008, 4800007
2405, 4700008, 4700009, 4800009, 4800008
2406, 4700009, 4700010, 4800010, 4800009
2407, 4700010, 4700011, 4800011, 4800010
2408, 4700011, 4700012, 4800012, 4800011
2409, 4700012, 4700013, 4800013, 4800012
2410, 4700013, 4700014, 4800014, 4800013
2411, 4700014, 4700015, 4800015, 4800014
2412, 4700015, 4700016, 4800016, 4800015
2413, 4700016, 4700017, 4800017, 4800016
2414, 4700017, 4700018, 4800018, 4800017
2415, 4700018, 4700019, 4800019, 4800018
2416, 4700019, 4700020, 4800020, 4800019
2417, 4700020, 4700021, 4800021, 4800020
2418, 4700021, 4700022, 4800022, 4800021
2419, 4700022, 4700023, 4800023, 4800022
2420, 4700023, 4700024, 4800024, 4800023
2421, 4700024, 4700025, 4800025, 4800024
2422, 4700025, 4700026, 4800026, 4800025
2423, 4700026, 4700027, 4800027, 4800026
2424, 4700027, 4700028, 4800028, 4800027
2425, 4700028, 4700029, 4800029, 4800028
2426, 4700029, 4700030, 4800030, 4800029
2427, 4700030, 4700031, 4800031, 4800030
2428, 4700031, 4700032, 4800032, 4800031
2429, 4700032, 4700033, 4800033, 4800032
2430, 4700033, 4700034, 4800034, 4800033
2431, 4700034, 4700035, 4800035, 4800034
2432, 4700035, 4700036, 4800036, 4800035
2433, 4700036, 4700037, 4800037, 4800036
2434, 4700037, 4700038, 4800038, 4800037
2435, 4700038, 4700039, 4800039, 4800038
2436, 4700039, 4700040, 4800040, 4800039
2437, 4700040, 4700041, 4800041, 4800040
2438, 4700041, 4700042, 4800042, 4800041
2439, 4700042, 4700043, 4800043, 4800042
2440, 4700043, 4700044, 4800044, 4800043
2441, 4700044, 4700045, 4800045, 4800044
2442, 4700045, 4700046, 4800046, 4800045
2443, 4700046, 4700047, 4800047, 4800046
2444, 4700047, 4700048, 4800048, 4800047
2445, 4700048, 4700049, 4800049, 4800048
2446, 4700049, 4700050, 4800050, 4800049
2447, 4700050, 4700051, 4800051, 4800050
2448, 4700051, 4700052, 4800052, 4800051
2449, 4800001, 4800002, 4900002, 4900001
2450, 4800002, 4800003, 4900003, 4900002
2451, 4800003, 4800004, 4900004, 4900003
2452, 4800004, 4800005, 4900005, 4900004
2453, 4800005, 4800006, 4900006, 4900005
2454, 4800006, 4800007, 4900007, 4900006
2455, 4800007, 4800008, 4900008, 4900007
2456, 4800008, 4800009, 4900009, 4900008
2457, 4800009, 4800010, 4900010, 4900009
2458, 4800010, 4800011, 4900011, 4900010
2459, 4800011, 4800012, 4900012, 4900011
2460, 4800012, 4800013, 4900013, 4900012
2461, 4800013, 4800014, 4900014, 4900013
2462, 4800014, 4800015, 4900015, 4900014
2463, 4800015, 4800016, 4900016, 4900015
2464, 4800016, 4800017, 4900017, 4900016
2465, 4800017, 4800018, 4900018, 4900017
2466, 4800018, 4800019, 4900019, 4900018
2467, 4800019, 4800020, 4900020, 4900019
2468, 4800020, 4800021, 4900021, 4900020
2469, 4800021, 4800022, 4900022, 4900021
2470, 4800022, 4800023, 4900023, 4900022
2471, 4800023, 4800024, 4900024, 4900023
2472, 4800024, 4800025, 4900025, 4900024
2473, 4800025, 4800026, 4900026, 4900025
2474, 4800026, 4800027, 4900027, 4900026
2475, 4800027, 4800028, 4900028, 4900027
2476, 4800028, 4800029, 4900029, 4900028
2477, 4800029, 4800030, 4900030, 4900029
2478, 4800030, 4800031, 4900031, 4900030
2479, 4800031, 4800032, 4900032, 4900031
2480, 4800032, 4800033, 4900033, 4900032
2481, 4800033, 4800034, 4900034, 4900033
2482, 4800034, 4800035, 4900035, 4900034
2483, 4800035, 4800036, 4900036, 4900035
2484, 4800036, 4800037, 4900037, 4900036
2485, 4800037, 4800038, 4900038, 4900037
2486, 4800038, 4800039, 4900039, 4900038
2487, 4800039, 4800040, 4900040, 4900039
2488, 4800040, 4800041, 4900041, 4900040
2489, 4800041, 4800042, 4900042, 4900041
2490, 4800042, 4800043, 4900043, 4900042
2491, 4800043, 4800044, 4900044, 4900043
2492, 4800044, 4800045, 4900045, 4900044
2493, 4800045, 4800046, 4900046, 4900045
2494, 4800046, 4800047, 4900047, 4900046
2495, 4800047, 4800048, 4900048, 4900047
2496, 4800048, 4800049, 4900049, 4900048
2497, 4800049, 4800050, 4900050, 4900049
2498, 4800050, 4800051, 4900051, 4900050
2499, 4800051, 4800052, 4900052, 4900051
2500, 4900001, 4900002, 5000002, 5000001
2501, 4900002, 4900003, 5000003, 5000002
2502, 4900003, 4900004, 5000004, 5000003
2503, 4900004, 4900005, 5000005, 5000004
2504, 4900005, 4900006, 5000006, 5000005
2505, 4900006, 4900007, 5000007, 5000006
2506, 4900007, 4900008, 5000008, 5000007
2507, 4900008, 4900009, 5000009, 5000008
2508, 4900009, 4900010, 5000010, 5000009
2509, 4900010, 4900011, 5000011, 5000010
2510, 4900011, 4900012, 5000012, 5000011
2511, 4900012, 4900013, 5000013, 5000012
2512, 4900013, 4900014, 5000014, 5000013
2513, 4900014, 4900015, 5000015, 5000014
2514, 4900015, 4900016, 5000016, 5000015
2515, 4900016, 4900017, 5000017, 5000016
2516, 4900017, 4900018, 5000018, 5000017
2517, 4900018, 4900019, 5000019, 5000018
2518, 4900019, 4900020, 5000020, 5000019
2519, 4900020, 4900021, 5000021, 5000020
2520, 4900021, 4900022, 5000022, 5000021
2521, 4900022, 4900023, 5000023, 5000022
2522, 4900023, 4900024, 5000024, 5000023
2523, 4900024, 4900025, 5000025, 5000024
2524, 4900025, 4900026, 5000026, 5000025
2525, 4900026, 4900027, 5000027, 5000026
2526, 4900027, 4900028, 5000028, 5000027
2527, 4900028, 4900029, 5000029, 5000028
2528, 4900029, 4900030, 5000030, 5000029
2529, 4900030, 4900031, 5000031, 5000030
2530, 4900031, 4900032, 5000032, 5000031
2531, 4900032, 4900033, 5000033, 5000032
2532, 4900033, 4900034, 5000034, 5000033
2533, 4900034, 4900035, 5000035, 5000034
2534, 4900035, 4900036, 5000036, 5000035
2535, 4900036, 4900037, 5000037, 5000036
2536, 4900037, 4900038, 5000038, 5000037
2537, 4900038, 4900039, 5000039, 5000038
2538, 4900039, 4900040, 5000040, 5000039
2539, 4900040, 4900041, 5000041, 5000040
2540, 4900041, 4900042, 5000042, 5000041
2541, 4900042, 4900043, 5000043, 5000042
2542, 4900043, 4900044, 5000044, 5000043
2543, 4900044, 4900045, 5000045, 5000044
2544, 4900045, 4900046, 5000046, 5000045
2545, 4900046, 4900047, 5000047, 5000046
2546, 4900047, 4900048, 5000048, 5000047
2547, 4900048, 4900049, 5000049, 5000048
2548, 4900049, 4900050, 5000050, 5000049
2549, 4900050, 4900051, 5000051, 5000050
2550, 4900051, 4900052, 5000052, 5000051
2551, 5000001, 5000002, 5100002, 5100001
2552, 5000002, 5000003, 5100003, 5100002
2553, 5000003, 5000004, 5100004, 5100003
2554, 5000004, 5000005, 5100005, 5100004
2555, 5000005, 5000006, 5100006, 5100005
2556, 5000006, 5000007, 5100007, 5100006
2557, 5000007, 5000008, 5100008, 5100007
2558, 5000008, 5000009, 5100009, 5100008
2559, 5000009, 5000010, 5100010, 5100009
2560, 5000010, 5000011, 5100011, 5100010
2561, 5000011, 5000012, 5100012, 5100011
2562, 5000012, 5000013, 5100013, 5100012
2563, 5000013, 5000014, 5100014, 5100013
2564, 5000014, 5000015, 5100015, 5100014
2565, 5000015, 5000016, 5100016, 5100015
2566, 5000016, 5000017, 5100017, 5100016
2567, 5000017, 5000018, 5100018, 5100017
2568, 5000018, 5000019, 5100019, 5100018
2569, 5000019, 5000020, 5100020, 5100019
2570, 5000020, 5000021, 5100021, 5100020
2571, 5000021, 5000022, 5100022, 5100021
2572, 5000022, 5000023, 5100023, 5100022
2573, 5000023, 5000024, 5100024, 5100023
2574, 5000024, 5000025, 5100025, 5100024
2575, 5000025, 5000026, 5100026, 5100025
2576, 5000026, 5000027, 5100027, 5100026
2577, 5000027, 5000028, 5100028, 5100027
2578, 5000028, 5000029, 5100029, 5100028
2579, 5000029, 5000030, 5100030, 5100029
2580, 5000030, 5000031, 5100031, 5100030
2581, 5000031, 5000032, 5100032, 5100031
2582, 5000032, 5000033, 5100033, 5100032
2583, 5000033, 5000034, 5100034, 5100033
2584, 5000034, 5000035, 5100035, 5100034
2585, 5000035, 5000036, 5100036, 5100035
2586, 5000036, 5000037, 5100037, 5100036
2587, 5000037, 5000038, 5100038, 5100037
2588, 5000038, 5000039, 5100039, 5100038
2589, 5000039, 5000040, 5100040, 5100039
2590, 5000040, 5000041, 5100041, 5100040
2591, 5000041, 5000042, 5100042, 5100041
2592, 5000042, 5000043, 5100043, 5100042
2593, 5000043, 5000044, 5100044, 5100043
2594, 5000044, 5000045, 5100045, 5100044
2595, 5000045, 5000046, 5100046, 5100045
2596, 5000046, 5000047, 5100047, 5100046
2597, 5000047, 5000048, 5100048, 5100047
2598, 5000048, 5000049, 5100049, 5100048
2599, 5000049, 5000050, 5100050, 5100049
2600, 5000050, 5000051, 5100051, 5100050
2601, 5000051, 5000052, 5100052, 5100051
2602, 5100001, 5100002, 5200002, 5200001
2603, 5100002, 5100003, 5200003, 5200002
2604, 5100003, 5100004, 5200004, 5200003
2605, 5100004, 5100005, 5200005, 5200004
2606, 5100005, 5100006, 5200006, 5200005
2607, 5100006, 5100007, 5200007, 5200006
2608, 5100007, 5100008, 5200008, 5200007
2609, 5100008, 5100009, 5200009, 5200008
2610, 5100009, 5100010, 5200010, 5200009
2611, 5100010, 5100011, 5200011, 5200010
2612, 5100011, 5100012, 5200012, 5200011
2613, 5100012, 5100013, 5200013, 5200012
2614, 5100013, 5100014, 5200014, 5200013
2615, 5100014, 5100015, 5200015, 5200014
2616, 5100015, 5100016, 5200016, 5200015
2617, 5100016, 5100017, 5200017, 5200016
2618, 5100017, 5100018, 5200018, 5200017
2619, 5100018, 5100019, 5200019, 5200018
2620, 5100019, 5100020, 5200020, 5200019
2621, 5100020, 5100021, 5200021, 5200020
2622, 5100021, 5100022, 5200022, 5200021
2623, 5100022, 5100023, 5200023, 5200022
2624, 5100023, 5100024, 5200024, 5200023
2625, 5100024, 5100025, 5200025, 5200024
2626, 5100025, 5100026, 5200026, 5200025
2627, 5100026, 5100027, 5200027, 5200026
2628, 5100027, 5100028, 5200028, 5200027
2629, 5100028, 5100029, 5200029, 5200028
2630, 5100029, 5100030, 5200030, 5200029
2631, 5100030, 5100031, 5200031, 5200030
2632, 5100031, 5100032, 5200032, 5200031
2633, 5100032, 5100033, 5200033, 5200032
2634, 5100033, 5100034, 5200034, 5200033
2635, 5100034, 5100035, 5200035, 5200034
2636, 5100035, 5100036, 5200036, 5200035
2637, 5100036, 5100037, 5200037, 5200036
2638, 5100037, 5100038, 5200038, 5200037
2639, 5100038, 5100039, 5200039, 5200038
2640, 5100039, 5100040, 5200040, 5200039
2641, 5100040, 5100041, 5200041, 5200040
2642, 5100041, 5100042, 5200042, 5200041
2643, 5100042, 5100043, 5200043, 5200042
2644, 5100043, 5100044, 5200044, 5200043
2645, 5100044, 5100045, 5200045, 5200044
2646, 5100045, 5100046, 5200046, 5200045
2647, 5100046, 5100047, 5200047, 5200046
2648, 5100047, 5100048, 5200048, 5200047
2649, 5100048, 5100049, 5200049, 5200048
2650, 5100049, 5100050, 5200050, 5200049
2651, 5100050, 5100051, 5200051, 5200050
2652, 5100051, 5100052, 5200052, 5200051
2653, 5200001, 5200002, 5300002, 5300001
2654, 5200002, 5200003, 5300003, 5300002
2655, 5200003, 5200004, 5300004, 5300003
2656, 5200004, 5200005, 5300005, 5300004
2657, 5200005, 5200006, 5300006, 5300005
2658, 5200006, 5200007, 5300007, 5300006
2659, 5200007, 5200008, 5300008, 5300007
2660, 5200008, 5200009, 5300009, 5300008
2661, 5200009, 5200010, 5300010, 5300009
2662, 5200010, 5200011, 5300011, 5300010
2663, 5200011, 5200012, 5300012, 5300011
2664, 5200012, 5200013, 5300013, 5300012
2665, 5200013, 5200014, 5300014, 5300013
2666, 5200014, 5200015, 5300015, 5300014
2667, 5200015, 5200016, 5300016, 5300015
2668, 5200016, 5200017, 5300017, 5300016
2669, 5200017, 5200018, 5300018, 5300017
2670, 5200018, 5200019, 5300019, 5300018
2671, 5200019, 5200020, 5300020, 5300019
2672, 5200020, 5200021, 5300021, 5300020
2673, 5200021, 5200022, 5300022, 5300021
2674, 5200022, 5200023, 5300023, 5300022
2675, 5200023, 5200024, 5300024, 5300023
2676, 5200024, 5200025, 5300025, 5300024
2677, 5200025, 5200026, 5300026, 5300025
2678, 5200026, 5200027, 5300027, 5300026
2679, 5200027, 5200028, 5300028, 5300027
2680, 5200028, 5200029, 5300029, 5300028
2681, 5200029, 5200030, 5300030, 5300029
2682, 5200030, 5200031, 5300031, 5300030
2683, 5200031, 5200032, 5300032, 5300031
2684, 5200032, 5200033, 5300033, 5300032
2685, 5200033, 5200034, 5300034, 5300033
2686, 5200034, 5200035, 5300035, 5300034
2687, 5200035, 5200036, 5300036, 5300035
2688, 5200036, 5200037, 5300037, 5300036
2689, 5200037, 5200038, 5300038, 5300037
2690, 5200038, 5200039, 5300039, 5300038
2691, 5200039, 5200040, 5300040, 5300039
2692, 5200040, 5200041, 5300041, 5300040
2693, 5200041, 5200042, 5300042, 5300041
2694, 5200042, 5200043, 5300043, 5300042
2695, 5200043, 5200044, 5300044, 5300043
2696, 5200044, 5200045, 5300045, 5300044
2697, 5200045, 5200046, 5300046, 5300045
2698, 5200046, 5200047, 5300047, 5300046
2699, 5200047, 5200048, 5300048, 5300047
2700, 5200048, 5200049, 5300049, 5300048
2701, 5200049, 5200050, 5300050, 5300049
2702, 5200050, 5200051, 5300051, 5300050
2703, 5200051, 5200052, 5300052, 5300051
2704, 5300001, 5300002, 5400002, 5400001
2705, 5300002, 5300003, 5400003, 5400002
2706, 5300003, 5300004, 5400004, 5400003
2707, 5300004, 5300005, 5400005, 5400004
2708, 5300005, 5300006, 5400006, 5400005
2709, 5300006, 5300007, 5400007, 5400006
2710, 5300007, 5300008, 5400008, 5400007
2711, 5300008, 5300009, 5400009, 5400008
2712, 5300009, 5300010, 5400010, 5400009
2713, 5300010, 5300011, 5400011, 5400010
2714, 5300011, 5300012, 5400012, 5400011
2715, 5300012, 5300013, 5400013, 5400012
2716, 5300013, 5300014, 5400014, 5400013
2717, 5300014, 5300015, 5400015, 5400014
2718, 5300015, 5300016, 5400016, 5400015
2719, 5300016, 5300017, 5400017, 5400016
2720, 5300017, 5300018, 5400018, 5400017
2721, 5300018, 5300019, 5400019, 5400018
2722, 5300019, 5300020, 5400020, 5400019
2723, 5300020, 5300021, 5400021, 5400020
2724, 5300021, 5300022, 5400022, 5400021
2725, 5300022, 5300023, 5400023, 5400022
2726, 5300023, 5300024, 5400024, 5400023
2727, 5300024, 5300025, 5400025, 5400024
2728, 5300025, 5300026, 5400026, 5400025
2729, 5300026, 5300027, 5400027, 5400026
2730, 5300027, 5300028, 5400028, 5400027
2731, 5300028, 5300029, 5400029, 5400028
2732, 5300029, 5300030, 5400030, 5400029
2733, 5300030, 5300031, 5400031, 5400030
2734, 5300031, 5300032, 5400032, 5400031
2735, 5300032, 5300033, 5400033, 5400032
2736, 5300033, 5300034, 5400034, 5400033
2737, 5300034, 5300035, 5400035, 5400034
2738, 5300035, 5300036, 5400036, 5400035
2739, 5300036, 5300037, 5400037, 5400036
2740, 5300037, 5300038, 5400038, 5400037
2741, 5300038, 5300039, 5400039, 5400038
2742, 5300039, 5300040, 5400040, 5400039
2743, 5300040, 5300041, 5400041, 5400040
2744, 5300041, 5300042, 5400042, 5400041
2745, 5300042, 5300043, 5400043, 5400042
2746, 5300043, 5300044, 5400044, 5400043
2747, 5300044, 5300045, 5400045, 5400044
2748, 5300045, 5300046, 5400046, 5400045
2749, 5300046, 5300047, 5400047, 5400046
2750, 5300047, 5300048, 5400048, 5400047
2751, 5300048, 5300049, 5400049, 5400048
2752, 5300049, 5300050, 5400050, 5400049
2753, 5300050, 5300051, 5400051, 5400050
2754, 5300051, 5300052, 5400052, 5400051
2755, 5400001, 5400002, 5500002, 5500001
2756, 5400002, 5400003, 5500003, 5500002
2757, 5400003, 5400004, 5500004, 5500003
2758, 5400004, 5400005, 5500005, 5500004
2759, 5400005, 5400006, 5500006, 5500005
2760, 5400006, 5400007, 5500007, 5500006
2761, 5400007, 5400008, 5500008, 5500007
2762, 5400008, 5400009, 5500009, 5500008
2763, 5400009, 5400010, 5500010, 5500009
2764, 5400010, 5400011, 5500011, 5500010
2765, 5400011, 5400012, 5500012, 5500011
2766, 5400012, 5400013, 5500013, 5500012
2767, 5400013, 5400014, 5500014, 5500013
2768, 5400014, 5400015, 5500015, 5500014
2769, 5400015, 5400016, 5500016, 5500015
2770, 5400016, 5400017, 5500017, 5500016
2771, 5400017, 5400018, 5500018, 5500017
2772, 5400018, 5400019, 5500019, 5500018
2773, 5400019, 5400020, 5500020, 5500019
2774, 5400020, 5400021, 5500021, 5500020
2775, 5400021, 5400022, 5500022, 5500021
2776, 5400022, 5400023, 5500023, 5500022
2777, 5400023, 5400024, 5500024, 5500023
2778, 5400024, 5400025, 5500025, 5500024
2779, 5400025, 5400026, 5500026, 5500025
2780, 5400026, 5400027, 5500027, 5500026
2781, 5400027, 5400028, 5500028, 5500027
2782, 5400028, 5400029, 5500029, 5500028
2783, 5400029, 5400030, 5500030, 5500029
2784, 5400030, 5400031, 5500031, 5500030
2785, 5400031, 5400032, 5500032, 5500031
2786, 5400032, 5400033, 5500033, 5500032
2787, 5400033, 5400034, 5500034, 5500033
2788, 5400034, 5400035, 5500035, 5500034
2789, 5400035, 5400036, 5500036, 5500035
2790, 5400036, 5400037, 5500037, 5500036
2791, 5400037, 5400038, 5500038, 5500037
2792, 5400038, 5400039, 5500039, 5500038
2793, 5400039, 5400040, 5500040, 5500039
2794, 5400040, 5400041, 5500041, 5500040
2795, 5400041, 5400042, 5500042, 5500041
2796, 5400042, 5400043, 5500043, 5500042
2797, 5400043, 5400044, 5500044, 5500043
2798, 5400044, 5400045, 5500045, 5500044
2799, 5400045, 5400046, 5500046, 5500045
2800, 5400046, 5400047, 5500047, 5500046
2801, 5400047, 5400048, 5500048, 5500047
2802, 5400048, 5400049, 5500049, 5500048
2803, 5400049, 5400050, 5500050, 5500049
2804, 5400050, 5400051, 5500051, 5500050
2805, 5400051, 5400052, 5500052, 5500051
2806, 5500001, 5500002, 5600002, 5600001
2807, 5500002, 5500003, 5600003, 5600002
2808, 5500003, 5500004, 5600004, 5600003
2809, 5500004, 5500005, 5600005, 5600004
2810, 5500005, 5500006, 5600006, 5600005
2811, 5500006, 5500007, 5600007, 5600006
2812, 5500007, 5500008, 5600008, 5600007
2813, 5500008, 5500009, 5600009, 5600008
2814, 5500009, 5500010, 5600010, 5600009
2815, 5500010, 5500011, 5600011, 5600010
2816, 5500011, 5500012, 5600012, 5600011
2817, 5500012, 5500013, 5600013, 5600012
2818, 5500013, 5500014, 5600014, 5600013
2819, 5500014, 5500015, 5600015, 5600014
2820, 5500015, 5500016, 5600016, 5600015
2821, 5500016, 5500017, 5600017, 5600016
2822, 5500017, 5500018, 5600018, 5600017
2823, 5500018, 5500019, 5600019, 5600018
2824, 5500019, 5500020, 5600020, 5600019
2825, 5500020, 5500021, 5600021, 5600020
2826, 5500021, 5500022, 5600022, 5600021
2827, 5500022, 5500023, 5600023, 5600022
2828, 5500023, 5500024, 5600024, 5600023
2829, 5500024, 5500025, 5600025, 5600024
2830, 5500025, 5500026, 5600026, 5600025
2831, 5500026, 5500027, 5600027, 5600026
2832, 5500027, 5500028, 5600028, 5600027
2833, 5500028, 5500029, 5600029, 5600028
2834, 5500029, 5500030, 5600030, 5600029
2835, 5500030, 5500031, 5600031, 5600030
2836, 5500031, 5500032, 5600032, 5600031
2837, 5500032, 5500033, 5600033, 5600032
2838, 5500033, 5500034, 5600034, 5600033
2839, 5500034, 5500035, 5600035, 5600034
2840, 5500035, 5500036, 5600036, 5600035
2841, 5500036, 5500037, 5600037, 5600036
2842, 5500037, 5500038, 5600038, 5600037
2843, 5500038, 5500039, 5600039, 5600038
2844, 5500039, 5500040, 5600040, 5600039
2845, 5500040, 5500041, 5600041, 5600040
2846, 5500041, 5500042, 5600042, 5600041
2847, 5500042, 5500043, 5600043, 5600042
2848, 5500043, 5500044, 5600044, 5600043
2849, 5500044, 5500045, 5600045, 5600044
2850, 5500045, 5500046, 5600046, 5600045
2851, 5500046, 5500047, 5600047, 5600046
2852, 5500047, 5500048, 5600048, 5600047
2853, 5500048, 5500049, 5600049, 5600048
2854, 5500049, 5500050, 5600050, 5600049
2855, 5500050, 5500051, 5600051, 5600050
2856, 5500051, 5500052, 5600052, 5600051
2857, 5600001, 5600002, 5700002, 5700001
2858, 5600002, 5600003, 5700003, 5700002
2859, 5600003, 5600004, 5700004, 5700003
2860, 5600004, 5600005, 5700005, 5700004
2861, 5600005, 5600006, 5700006, 5700005
2862, 5600006, 5600007, 5700007, 5700006
2863, 5600007, 5600008, 5700008, 5700007
2864, 5600008, 5600009, 5700009, 5700008
2865, 5600009, 5600010, 5700010, 5700009
2866, 5600010, 5600011, 5700011, 5700010
2867, 5600011, 5600012, 5700012, 5700011
2868, 5600012, 5600013, 5700013, 5700012
2869, 5600013, 5600014, 5700014, 5700013
2870, 5600014, 5600015, 5700015, 5700014
2871, 5600015, 5600016, 5700016, 5700015
2872, 5600016, 5600017, 5700017, 5700016
2873, 5600017, 5600018, 5700018, 5700017
2874, 5600018, 5600019, 5700019, 5700018
2875, 5600019, 5600020, 5700020, 5700019
2876, 5600020, 5600021, 5700021, 5700020
2877, 5600021, 5600022, 5700022, 5700021
2878, 5600022, 5600023, 5700023, 5700022
2879, 5600023, 5600024, 5700024, 5700023
2880, 5600024, 5600025, 5700025, 5700024
2881, 5600025, 5600026, 5700026, 5700025
2882, 5600026, 5600027, 5700027, 5700026
2883, 5600027, 5600028, 5700028, 5700027
2884, 5600028, 5600029, 5700029, 5700028
2885, 5600029, 5600030, 5700030, 5700029
2886, 5600030, 5600031, 5700031, 5700030
2887, 5600031, 5600032, 5700032, 5700031
2888, 5600032, 5600033, 5700033, 5700032
2889, 5600033, 5600034, 5700034, 5700033
2890, 5600034, 5600035, 5700035, 5700034
2891, 5600035, 5600036, 5700036, 5700035
2892, 5600036, 5600037, 5700037, 5700036
2893, 5600037, 5600038, 5700038, 5700037
2894, 5600038, 5600039, 5700039, 5700038
2895, 5600039, 5600040, 5700040, 5700039
2896, 5600040, 5600041, 5700041, 5700040
2897, 5600041, 5600042, 5700042, 5700041
2898, 5600042, 5600043, 5700043, 5700042
2899, 5600043, 5600044, 5700044, 5700043
2900, 5600044, 5600045, 5700045, 5700044
2901, 5600045, 5600046, 5700046, 5700045
2902, 5600046, 5600047, 5700047, 5700046
2903, 5600047, 5600048, 5700048, 5700047
2904, 5600048, 5600049, 5700049, 5700048
2905, 5600049, 5600050, 5700050, 5700049
2906, 5600050, 5600051, 5700051, 5700050
2907, 5600051, 5600052, 5700052, 5700051
2908, 5700001, 5700002, 5800002, 5800001
2909, 5700002, 5700003, 5800003, 5800002
2910, 5700003, 5700004, 5800004, 5800003
2911, 5700004, 5700005, 5800005, 5800004
2912, 5700005, 5700006, 5800006, 5800005
2913, 5700006, 5700007, 5800007, 5800006
2914, 5700007, 5700008, 5800008, 5800007
2915, 5700008, 5700009, 5800009, 5800008
2916, 5700009, 5700010, 5800010, 5800009
2917, 5700010, 5700011, 5800011, 5800010
2918, 5700011, 5700012, 5800012, 5800011
2919, 5700012, 5700013, 5800013, 5800012
2920, 5700013, 5700014, 5800014, 5800013
2921, 5700014, 5700015, 5800015, 5800014
2922, 5700015, 5700016, 5800016, 5800015
2923, 5700016, 5700017, 5800017, 5800016
2924, 5700017, 5700018, 5800018, 5800017
2925, 5700018, 5700019, 5800019, 5800018
2926, 5700019, 5700020, 5800020, 5800019
2927, 5700020, 5700021, 5800021, 5800020
2928, 5700021, 5700022, 5800022, 5800021
2929, 5700022, 5700023, 5800023, 5800022
2930, 5700023, 5700024, 5800024, 5800023
2931, 5700024, 5700025, 5800025, 5800024
2932, 5700025, 5700026, 5800026, 5800025
2933, 5700026, 5700027, 5800027, 5800026
2934, 5700027, 5700028, 5800028, 5800027
2935, 5700028, 5700029, 5800029, 5800028
2936, 5700029, 5700030, 5800030, 5800029
2937, 5700030, 5700031, 5800031, 5800030
2938, 5700031, 5700032, 5800032, 5800031
2939, 5700032, 5700033, 5800033, 5800032
2940, 5700033, 5700034, 5800034, 5800033
2941, 5700034, 5700035, 5800035, 5800034
2942, 5700035, 5700036, 5800036, 5800035
2943, 5700036, 5700037, 5800037, 5800036
2944, 5700037, 5700038, 5800038, 5800037
2945, 5700038, 5700039, 5800039, 5800038
2946, 5700039, 5700040, 5800040, 5800039
2947, 5700040, 5700041, 5800041, 5800040
2948, 5700041, 5700042, 5800042, 5800041
2949, 5700042, 5700043, 5800043, 5800042
2950, 5700043, 5700044, 5800044, 5800043
2951, 5700044, 5700045, 5800045, 5800044
2952, 5700045, 5700046, 5800046, 5800045
2953, 5700046, 5700047, 5800047, 5800046
2954, 5700047, 5700048, 5800048, 5800047
2955, 5700048, 5700049, 5800049, 5800048
2956, 5700049, 5700050, 5800050, 5800049
2957, 5700050, 5700051, 5800051, 5800050
2958, 5700051, 5700052, 5800052, 5800051
2959, 5800001, 5800002, 5900002, 5900001
2960, 5800002, 5800003, 5900003, 5900002
2961, 5800003, 5800004, 5900004, 5900003
2962, 5800004, 5800005, 5900005, 5900004
2963, 5800005, 5800006, 5900006, 5900005
2964, 5800006, 5800007, 5900007, 5900006
2965, 5800007, 5800008, 5900008, 5900007
2966, 5800008, 5800009, 5900009, 5900008
2967, 5800009, 5800010, 5900010, 5900009
2968, 5800010, 5800011, 5900011, 5900010
2969, 5800011, 5800012, 5900012, 5900011
2970, 5800012, 5800013, 5900013, 5900012
2971, 5800013, 5800014, 5900014, 5900013
2972, 5800014, 5800015, 5900015, 5900014
2973, 5800015, 5800016, 5900016, 5900015
2974, 5800016, 5800017, 5900017, 5900016
2975, 5800017, 5800018, 5900018, 5900017
2976, 5800018, 5800019, 5900019, 5900018
2977, 5800019, 5800020, 5900020, 5900019
2978, 5800020, 5800021, 5900021, 5900020
2979, 5800021, 5800022, 5900022, 5900021
2980, 5800022, 5800023, 5900023, 5900022
2981, 5800023, 5800024, 5900024, 5900023
2982, 5800024, 5800025, 5900025, 5900024
2983, 5800025, 5800026, 5900026, 5900025
2984, 5800026, 5800027, 5900027, 5900026
2985, 5800027, 5800028, 5900028, 5900027
2986, 5800028, 5800029, 5900029, 5900028
2987, 5800029, 5800030, 5900030, 5900029
2988, 5800030, 5800031, 5900031, 5900030
2989, 5800031, 5800032, 5900032, 5900031
2990, 5800032, 5800033, 5900033, 5900032
2991, 5800033, 5800034, 5900034, 5900033
2992, 5800034, 5800035, 5900035, 5900034
2993, 5800035, 5800036, 5900036, 5900035
2994, 5800036, 5800037, 5900037, 5900036
2995, 5800037, 5800038, 5900038, 5900037
2996, 5800038, 5800039, 5900039, 5900038
2997, 5800039, 5800040, 5900040, 5900039
2998, 5800040, 5800041, 5900041, 5900040
2999, 5800041, 5800042, 5900042, 5900041
3000, 5800042, 5800043, 5900043, 5900042
3001, 5800043, 5800044, 5900044, 5900043
3002, 5800044, 5800045, 5900045, 5900044
3003, 5800045, 5800046, 5900046, 5900045
3004, 5800046, 5800047, 5900047, 5900046
3005, 5800047, 5800048, 5900048, 5900047
3006, 5800048, 5800049, 5900049, 5900048
3007, 5800049, 5800050, 5900050, 5900049
3008, 5800050, 5800051, 5900051, 5900050
3009, 5800051, 5800052, 5900052, 5900051
3010, 5900001, 5900002, 6000002, 6000001
3011, 5900002, 5900003, 6000003, 6000002
3012, 5900003, 5900004, 6000004, 6000003
3013, 5900004, 5900005, 6000005, 6000004
3014, 5900005, 5900006, 6000006, 6000005
3015, 5900006, 5900007, 6000007, 6000006
3016, 5900007, 5900008, 6000008, 6000007
3017, 5900008, 5900009, 6000009, 6000008
3018, 5900009, 5900010, 6000010, 6000009
3019, 5900010, 5900011, 6000011, 6000010
3020, 5900011, 5900012, 6000012, 6000011
3021, 5900012, 5900013, 6000013, 6000012
3022, 5900013, 5900014, 6000014, 6000013
3023, 5900014, 5900015, 6000015, 6000014
3024, 5900015, 5900016, 6000016, 6000015
3025, 5900016, 5900017, 6000017, 6000016
3026, 5900017, 5900018, 6000018, 6000017
3027, 5900018, 5900019, 6000019, 6000018
3028, 5900019, 5900020, 6000020, 6000019
3029, 5900020, 5900021, 6000021, 6000020
3030, 5900021, 5900022, 6000022, 6000021
3031, 5900022, 5900023, 6000023, 6000022
3032, 5900023, 5900024, 6000024, 6000023
3033, 5900024, 5900025, 6000025, 6000024
3034, 5900025, 5900026, 6000026, 6000025
3035, 5900026, 5900027, 6000027, 6000026
3036, 5900027, 5900028, 6000028, 6000027
3037, 5900028, 5900029, 6000029, 6000028
3038, 5900029, 5900030, 6000030, 6000029
3039, 5900030, 5900031, 6000031, 6000030
3040, 5900031, 5900032, 6000032, 6000031
3041, 5900032, 5900033, 6000033, 6000032
3042, 5900033, 5900034, 6000034, 6000033
3043, 5900034, 5900035, 6000035, 6000034
3044, 5900035, 5900036, 6000036, 6000035
3045, 5900036, 5900037, 6000037, 6000036
3046, 5900037, 5900038, 6000038, 6000037
3047, 5900038, 5900039, 6000039, 6000038
3048, 5900039, 5900040, 6000040, 6000039
3049, 5900040, 5900041, 6000041, 6000040
3050, 5900041, 5900042, 6000042, 6000041
3051, 5900042, 5900043, 6000043, 6000042
3052, 5900043, 5900044, 6000044, 6000043
3053, 5900044, 5900045, 6000045, 6000044
3054, 5900045, 5900046, 6000046, 6000045
3055, 5900046, 5900047, 6000047, 6000046
3056, 5900047, 5900048, 6000048, 6000047
3057, 5900048, 5900049, 6000049, 6000048
3058, 5900049, 5900050, 6000050, 6000049
3059, 5900050, 5900051, 6000051, 6000050
3060, 5900051, 5900052, 6000052, 6000051
3061, 6000001, 6000002, 6100002, 6100001
3062, 6000002, 6000003, 6100003, 6100002
3063, 6000003, 6000004, 6100004, 6100003
3064, 6000004, 6000005, 6100005, 6100004
3065, 6000005, 6000006, 6100006, 6100005
3066, 6000006, 6000007, 6100007, 6100006
3067, 6000007, 6000008, 6100008, 6100007
3068, 6000008, 6000009, 6100009, 6100008
3069, 6000009, 6000010, 6100010, 6100009
3070, 6000010, 6000011, 6100011, 6100010
3071, 6000011, 6000012, 6100012, 6100011
3072, 6000012, 6000013, 6100013, 6100012
3073, 6000013, 6000014, 6100014, 6100013
3074, 6000014, 6000015, 6100015, 6100014
3075, 6000015, 6000016, 6100016, 6100015
3076, 6000016, 6000017, 6100017, 6100016
3077, 6000017, 6000018, 6100018, 6100017
3078, 6000018, 6000019, 6100019, 6100018
3079, 6000019, 6000020, 6100020, 6100019
3080, 6000020, 6000021, 6100021, 6100020
3081, 6000021, 6000022, 6100022, 6100021
3082, 6000022, 6000023, 6100023, 6100022
3083, 6000023, 6000024, 6100024, 6100023
3084, 6000024, 6000025, 6100025, 6100024
3085, 6000025, 6000026, 6100026, 6100025
3086, 6000026, 6000027, 6100027, 6100026
3087, 6000027, 6000028, 6100028, 6100027
3088, 6000028, 6000029, 6100029, 6100028
3089, 6000029, 6000030, 6100030, 6100029
3090, 6000030, 6000031, 6100031, 6100030
3091, 6000031, 6000032, 6100032, 6100031
3092, 6000032, 6000033, 6100033, 6100032
3093, 6000033, 6000034, 6100034, 6100033
3094, 6000034, 6000035, 6100035, 6100034
3095, 6000035, 6000036, 6100036, 6100035
3096, 6000036, 6000037, 6100037, 6100036
3097, 6000037, 6000038, 6100038, 6100037
3098, 6000038, 6000039, 6100039, 6100038
3099, 6000039, 6000040, 6100040, 6100039
3100, 6000040, 6000041, 6100041, 6100040
3101, 6000041, 6000042, 6100042, 6100041
3102, 6000042, 6000043, 6100043, 6100042
3103, 6000043, 6000044, 6100044, 6100043
3104, 6000044, 6000045, 6100045, 6100044
3105, 6000045, 6000046, 6100046, 6100045
3106, 6000046, 6000047, 6100047, 6100046
3107, 6000047, 6000048, 6100048, 6100047
3108, 6000048, 6000049, 6100049, 6100048
3109, 6000049, 6000050, 6100050, 6100049
3110, 6000050, 6000051, 6100051, 6100050
3111, 6000051, 6000052, 6100052, 6100051
3112, 6100001, 6100002, 6200002, 6200001
3113, 6100002, 6100003, 6200003, 6200002
3114, 6100003, 6100004, 6200004, 6200003
3115, 6100004, 6100005, 6200005, 6200004
3116, 6100005, 6100006, 6200006, 6200005
3117, 6100006, 6100007, 6200007, 6200006
3118, 6100007, 6100008, 6200008, 6200007
3119, 6100008, 6100009, 6200009, 6200008
3120, 6100009, 6100010, 6200010, 6200009
3121, 6100010, 6100011, 6200011, 6200010
3122, 6100011, 6100012, 6200012, 6200011
3123, 6100012, 6100013, 6200013, 6200012
3124, 6100013, 6100014, 6200014, 6200013
3125, 6100014, 6100015, 6200015, 6200014
3126, 6100015, 6100016, 6200016, 6200015
3127, 6100016, 6100017, 6200017, 6200016
3128, 6100017, 6100018, 6200018, 6200017
3129, 6100018, 6100019, 6200019, 6200018
3130, 6100019, 6100020, 6200020, 6200019
3131, 6100020, 6100021, 6200021, 6200020
3132, 6100021, 6100022, 6200022, 6200021
3133, 6100022, 6100023, 6200023, 6200022
3134, 6100023, 6100024, 6200024, 6200023
3135, 6100024, 6100025, 6200025, 6200024
3136, 6100025, 6100026, 6200026, 6200025
3137, 6100026, 6100027, 6200027, 6200026
3138, 6100027, 6100028, 6200028, 6200027
3139, 6100028, 6100029, 6200029, 6200028
3140, 6100029, 6100030, 6200030, 6200029
3141, 6100030, 6100031, 6200031, 6200030
3142, 6100031, 6100032, 6200032, 6200031
3143, 6100032, 6100033, 6200033, 6200032
3144, 6100033, 6100034, 6200034, 6200033
3145, 6100034, 6100035, 6200035, 6200034
3146, 6100035, 6100036, 6200036, 6200035
3147, 6100036, 6100037, 6200037, 6200036
3148, 6100037, 6100038, 6200038, 6200037
3149, 6100038, 6100039, 6200039, 6200038
3150, 6100039, 6100040, 6200040, 6200039
3151, 6100040, 6100041, 6200041, 6200040
3152, 6100041, 6100042, 6200042, 6200041
3153, 6100042, 6100043, 6200043, 6200042
3154, 6100043, 6100044, 6200044, 6200043
3155, 6100044, 6100045, 6200045, 6200044
3156, 6100045, 6100046, 6200046, 6200045
3157, 6100046, 6100047, 6200047, 6200046
3158, 6100047, 6100048, 6200048, 6200047
3159, 6100048, 6100049, 6200049, 6200048
3160, 6100049, 6100050, 6200050, 6200049
3161, 6100050, 6100051, 6200051, 6200050
3162, 6100051, 6100052, 6200052, 6200051
3163, 6200001, 6200002, 6300002, 6300001
3164, 6200002, 6200003, 6300003, 6300002
3165, 6200003, 6200004, 6300004, 6300003
3166, 6200004, 6200005, 6300005, 6300004
3167, 6200005, 6200006, 6300006, 6300005
3168, 6200006, 6200007, 6300007, 6300006
3169, 6200007, 6200008, 6300008, 6300007
3170, 6200008, 6200009, 6300009, 6300008
3171, 6200009, 6200010, 6300010, 6300009
3172, 6200010, 6200011, 6300011, 6300010
3173, 6200011, 6200012, 6300012, 6300011
3174, 6200012, 6200013, 6300013, 6300012
3175, 6200013, 6200014, 6300014, 6300013
3176, 6200014, 6200015, 6300015, 6300014
3177, 6200015, 6200016, 6300016, 6300015
3178, 6200016, 6200017, 6300017, 6300016
3179, 6200017, 6200018, 6300018, 6300017
3180, 6200018, 6200019, 6300019, 6300018
3181, 6200019, 6200020, 6300020, 6300019
3182, 6200020, 6200021, 6300021, 6300020
3183, 6200021, 6200022, 6300022, 6300021
3184, 6200022, 6200023, 6300023, 6300022
3185, 6200023, 6200024, 6300024, 6300023
3186, 6200024, 6200025, 6300025, 6300024
3187, 6200025, 6200026, 6300026, 6300025
3188, 6200026, 6200027, 6300027, 6300026
3189, 6200027, 6200028, 6300028, 6300027
3190, 6200028, 6200029, 6300029, 6300028
3191, 6200029, 6200030, 6300030, 6300029
3192, 6200030, 6200031, 6300031, 6300030
3193, 6200031, 6200032, 6300032, 6300031
3194, 6200032, 6200033, 6300033, 6300032
3195, 6200033, 6200034, 6300034, 6300033
3196, 6200034, 6200035, 6300035, 6300034
3197, 6200035, 6200036, 6300036, 6300035
3198, 6200036, 6200037, 6300037, 6300036
3199, 6200037, 6200038, 6300038, 6300037
3200, 6200038, 6200039, 6300039, 6300038
3201, 6200039, 6200040, 6300040, 6300039
3202, 6200040, 6200041, 6300041, 6300040
3203, 6200041, 6200042, 6300042, 6300041
3204, 6200042, 6200043, 6300043, 6300042
3205, 6200043, 6200044, 6300044, 6300043
3206, 6200044, 6200045, 6300045, 6300044
3207, 6200045, 6200046, 6300046, 6300045
3208, 6200046, 6200047, 6300047, 6300046
3209, 6200047, 6200048, 6300048, 6300047
3210, 6200048, 6200049, 6300049, 6300048
3211, 6200049, 6200050, 6300050, 6300049
3212, 6200050, 6200051, 6300051, 6300050
3213, 6200051, 6200052, 6300052, 6300051
3214, 6300001, 6300002, 6400002, 6400001
3215, 6300002, 6300003, 6400003, 6400002
3216, 6300003, 6300004, 6400004, 6400003
3217, 6300004, 6300005, 6400005, 6400004
3218, 6300005, 6300006, 6400006, 6400005
3219, 6300006, 6300007, 6400007, 6400006
3220, 6300007, 6300008, 6400008, 6400007
3221, 6300008, 6300009, 6400009, 6400008
3222, 6300009, 6300010, 6400010, 6400009
3223, 6300010, 6300011, 6400011, 6400010
3224, 6300011, 6300012, 6400012, 6400011
3225, 6300012, 6300013, 6400013, 6400012
3226, 6300013, 6300014, 6400014, 6400013
3227, 6300014, 6300015, 6400015, 6400014
3228, 6300015, 6300016, 6400016, 6400015
3229, 6300016, 6300017, 6400017, 6400016
3230, 6300017, 6300018, 6400018, 6400017
3231, 6300018, 6300019, 6400019, 6400018
3232, 6300019, 6300020, 6400020, 6400019
3233, 6300020, 6300021, 6400021, 6400020
3234, 6300021, 6300022, 6400022, 6400021
3235, 6300022, 6300023, 6400023, 6400022
3236, 6300023, 6300024, 6400024, 6400023
3237, 6300024, 6300025, 6400025, 6400024
3238, 6300025, 6300026, 6400026, 6400025
3239, 6300026, 6300027, 6400027, 6400026
3240, 6300027, 6300028, 6400028, 6400027
3241, 6300028, 6300029, 6400029, 6400028
3242, 6300029, 6300030, 6400030, 6400029
3243, 6300030, 6300031, 6400031, 6400030
3244, 6300031, 6300032, 6400032, 6400031
3245, 6300032, 6300033, 6400033, 6400032
3246, 6300033, 6300034, 6400034, 6400033
3247, 6300034, 6300035, 6400035, 6400034
3248, 6300035, 6300036, 6400036, 6400035
3249, 6300036, 6300037, 6400037, 6400036
3250, 6300037, 6300038, 6400038, 6400037
3251, 6300038, 6300039, 6400039, 6400038
3252, 6300039, 6300040, 6400040, 6400039
3253, 6300040, 6300041, 6400041, 6400040
3254, 6300041, 6300042, 6400042, 6400041
3255, 6300042, 6300043, 6400043, 6400042
3256, 6300043, 6300044, 6400044, 6400043
3257, 6300044, 6300045, 6400045, 6400044
3258, 6300045, 6300046, 6400046, 6400045
3259, 6300046, 6300047, 6400047, 6400046
3260, 6300047, 6300048, 6400048, 6400047
3261, 6300048, 6300049, 6400049, 6400048
3262, 6300049, 6300050, 6400050, 6400049
3263, 6300050, 6300051, 6400051, 6400050
3264, 6300051, 6300052, 6400052, 6400051
3265, 6400001, 6400002, 6500002, 6500001
3266, 6400002, 6400003, 6500003, 6500002
3267, 6400003, 6400004, 6500004, 6500003
3268, 6400004, 6400005, 6500005, 6500004
3269, 6400005, 6400006, 6500006, 6500005
3270, 6400006, 6400007, 6500007, 6500006
3271, 6400007, 6400008, 6500008, 6500007
3272, 6400008, 6400009, 6500009, 6500008
3273, 6400009, 6400010, 6500010, 6500009
3274, 6400010, 6400011, 6500011, 6500010
3275, 6400011, 6400012, 6500012, 6500011
3276, 6400012, 6400013, 6500013, 6500012
3277, 6400013, 6400014, 6500014, 6500013
3278, 6400014, 6400015, 6500015, 6500014
3279, 6400015, 6400016, 6500016, 6500015
3280, 6400016, 6400017, 6500017, 6500016
3281, 6400017, 6400018, 6500018, 6500017
3282, 6400018, 6400019, 6500019, 6500018
3283, 6400019, 6400020, 6500020, 6500019
3284, 6400020, 6400021, 6500021, 6500020
3285, 6400021, 6400022, 6500022, 6500021
3286, 6400022, 6400023, 6500023, 6500022
3287, 6400023, 6400024, 6500024, 6500023
3288, 6400024, 6400025, 6500025, 6500024
3289, 6400025, 6400026, 6500026, 6500025
3290, 6400026, 6400027, 6500027, 6500026
3291, 6400027, 6400028, 6500028, 6500027
3292, 6400028, 6400029, 6500029, 6500028
3293, 6400029, 6400030, 6500030, 6500029
3294, 6400030, 6400031, 6500031, 6500030
3295, 6400031, 6400032, 6500032, 6500031
3296, 6400032, 6400033, 6500033, 6500032
3297, 6400033, 6400034, 6500034, 6500033
3298, 6400034, 6400035, 6500035, 6500034
3299, 6400035, 6400036, 6500036, 6500035
3300, 6400036, 6400037, 6500037, 6500036
3301, 6400037, 6400038, 6500038, 6500037
3302, 6400038, 6400039, 6500039, 6500038
3303, 6400039, 6400040, 6500040, 6500039
3304, 6400040, 6400041, 6500041, 6500040
3305, 6400041, 6400042, 6500042, 6500041
3306, 6400042, 6400043, 6500043, 6500042
3307, 6400043, 6400044, 6500044, 6500043
3308, 6400044, 6400045, 6500045, 6500044
3309, 6400045, 6400046, 6500046, 6500045
3310, 6400046, 6400047, 6500047, 6500046
3311, 6400047, 6400048, 6500048, 6500047
3312, 6400048, 6400049, 6500049, 6500048
3313, 6400049, 6400050, 6500050, 6500049
3314, 6400050, 6400051, 6500051, 6500050
3315, 6400051, 6400052, 6500052, 6500051
3316, 6500001, 6500002, 6600002, 6600001
3317, 6500002, 6500003, 6600003, 6600002
3318, 6500003, 6500004, 6600004, 6600003
3319, 6500004, 6500005, 6600005, 6600004
3320, 6500005, 6500006, 6600006, 6600005
3321, 6500006, 6500007, 6600007, 6600006
3322, 6500007, 6500008, 6600008, 6600007
3323, 6500008, 6500009, 6600009, 6600008
3324, 6500009, 6500010, 6600010, 6600009
3325, 6500010, 6500011, 6600011, 6600010
3326, 6500011, 6500012, 6600012, 6600011
3327, 6500012, 6500013, 6600013, 6600012
3328, 6500013, 6500014, 6600014, 6600013
3329, 6500014, 6500015, 6600015, 6600014
3330, 6500015, 6500016, 6600016, 6600015
3331, 6500016, 6500017, 6600017, 6600016
3332, 6500017, 6500018, 6600018, 6600017
3333, 6500018, 6500019, 6600019, 6600018
3334, 6500019, 6500020, 6600020, 6600019
3335, 6500020, 6500021, 6600021, 6600020
3336, 6500021, 6500022, 6600022, 6600021
3337, 6500022, 6500023, 6600023, 6600022
3338, 6500023, 6500024, 6600024, 6600023
3339, 6500024, 6500025, 6600025, 6600024
3340, 6500025, 6500026, 6600026, 6600025
3341, 6500026, 6500027, 6600027, 6600026
3342, 6500027, 6500028, 6600028, 6600027
3343, 6500028, 6500029, 6600029, 6600028
3344, 6500029, 6500030, 6600030, 6600029
3345, 6500030, 6500031, 6600031, 6600030
3346, 6500031, 6500032, 6600032, 6600031
3347, 6500032, 6500033, 6600033, 6600032
3348, 6500033, 6500034, 6600034, 6600033
3349, 6500034, 6500035, 6600035, 6600034
3350, 6500035, 6500036, 6600036, 6600035
3351, 6500036, 6500037, 6600037, 6600036
3352, 6500037, 6500038, 6600038, 6600037
3353, 6500038, 6500039, 6600039, 6600038
3354, 6500039, 6500040, 6600040, 6600039
3355, 6500040, 6500041, 6600041, 6600040
3356, 6500041, 6500042, 6600042, 6600041
3357, 6500042, 6500043, 6600043, 6600042
3358, 6500043, 6500044, 6600044, 6600043
3359, 6500044, 6500045, 6600045, 6600044
3360, 6500045, 6500046, 6600046, 6600045
3361, 6500046, 6500047, 6600047, 6600046
3362, 6500047, 6500048, 6600048, 6600047
3363, 6500048, 6500049, 6600049, 6600048
3364, 6500049, 6500050, 6600050, 6600049
3365, 6500050, 6500051, 6600051, 6600050
3366, 6500051, 6500052, 6600052, 6600051
3367, 6600001, 6600002, 6700002, 6700001
3368, 6600002, 6600003, 6700003, 6700002
3369, 6600003, 6600004, 6700004, 6700003
3370, 6600004, 6600005, 6700005, 6700004
3371, 6600005, 6600006, 6700006, 6700005
3372, 6600006, 6600007, 6700007, 6700006
3373, 6600007, 6600008, 6700008, 6700007
3374, 6600008, 6600009, 6700009, 6700008
3375, 6600009, 6600010, 6700010, 6700009
3376, 6600010, 6600011, 6700011, 6700010
3377, 6600011, 6600012, 6700012, 6700011
3378, 6600012, 6600013, 6700013, 6700012
3379, 6600013, 6600014, 6700014, 6700013
3380, 6600014, 6600015, 6700015, 6700014
3381, 6600015, 6600016, 6700016, 6700015
3382, 6600016, 6600017, 6700017, 6700016
3383, 6600017, 6600018, 6700018, 6700017
3384, 6600018, 6600019, 6700019, 6700018
3385, 6600019, 6600020, 6700020, 6700019
3386, 6600020, 6600021, 6700021, 6700020
3387, 6600021, 6600022, 6700022, 6700021
3388, 6600022, 6600023, 6700023, 6700022
3389, 6600023, 6600024, 6700024, 6700023
3390, 6600024, 6600025, 6700025, 6700024
3391, 6600025, 6600026, 6700026, 6700025
3392, 6600026, 6600027, 6700027, 6700026
3393, 6600027, 6600028, 6700028, 6700027
3394, 6600028, 6600029, 6700029, 6700028
3395, 6600029, 6600030, 6700030, 6700029
3396, 6600030, 6600031, 6700031, 6700030
3397, 6600031, 6600032, 6700032, 6700031
3398, 6600032, 6600033, 6700033, 6700032
3399, 6600033, 6600034, 6700034, 6700033
3400, 6600034, 6600035, 6700035, 6700034
3401, 6600035, 6600036, 6700036, 6700035
3402, 6600036, 6600037, 6700037, 6700036
3403, 6600037, 6600038, 6700038, 6700037
3404, 6600038, 6600039, 6700039, 6700038
3405, 6600039, 6600040, 6700040, 6700039
3406, 6600040, 6600041, 6700041, 6700040
3407, 6600041, 6600042, 6700042, 6700041
3408, 6600042, 6600043, 6700043, 6700042
3409, 6600043, 6600044, 6700044, 6700043
3410, 6600044, 6600045, 6700045, 6700044
3411, 6600045, 6600046, 6700046, 6700045
3412, 6600046, 6600047, 6700047, 6700046
3413, 6600047, 6600048, 6700048, 6700047
3414, 6600048, 6600049, 6700049, 6700048
3415, 6600049, 6600050, 6700050, 6700049
3416, 6600050, 6600051, 6700051, 6700050
3417, 6600051, 6600052, 6700052, 6700051
3418, 6700001, 6700002, 6800002, 6800001
3419, 6700002, 6700003, 6800003, 6800002
3420, 6700003, 6700004, 6800004, 6800003
3421, 6700004, 6700005, 6800005, 6800004
3422, 6700005, 6700006, 6800006, 6800005
3423, 6700006, 6700007, 6800007, 6800006
3424, 6700007, 6700008, 6800008, 6800007
3425, 6700008, 6700009, 6800009, 6800008
3426, 6700009, 6700010, 6800010, 6800009
3427, 6700010, 6700011, 6800011, 6800010
3428, 6700011, 6700012, 6800012, 6800011
3429, 6700012, 6700013, 6800013, 6800012
3430, 6700013, 6700014, 6800014, 6800013
3431, 6700014, 6700015, 6800015, 6800014
3432, 6700015, 6700016, 6800016, 6800015
3433, 6700016, 6700017, 6800017, 6800016
3434, 6700017, 6700018, 6800018, 6800017
3435, 6700018, 6700019, 6800019, 6800018
3436, 6700019, 6700020, 6800020, 6800019
3437, 6700020, 6700021, 6800021, 6800020
3438, 6700021, 6700022, 6800022, 6800021
3439, 6700022, 6700023, 6800023, 6800022
3440, 6700023, 6700024, 6800024, 6800023
3441, 6700024, 6700025, 6800025, 6800024
3442, 6700025, 6700026, 6800026, 6800025
3443, 6700026, 6700027, 6800027, 6800026
3444, 6700027, 6700028, 6800028, 6800027
3445, 6700028, 6700029, 6800029, 6800028
3446, 6700029, 6700030, 6800030, 6800029
3447, 6700030, 6700031, 6800031, 6800030
3448, 6700031, 6700032, 6800032, 6800031
3449, 6700032, 6700033, 6800033, 6800032
3450, 6700033, 6700034, 6800034, 6800033
3451, 6700034, 6700035, 6800035, 6800034
3452, 6700035, 6700036, 6800036, 6800035
3453, 6700036, 6700037, 6800037, 6800036
3454, 6700037, 6700038, 6800038, 6800037
3455, 6700038, 6700039, 6800039, 6800038
3456, 6700039, 6700040, 6800040, 6800039
3457, 6700040, 6700041, 6800041, 6800040
3458, 6700041, 6700042, 6800042, 6800041
3459, 6700042, 6700043, 6800043, 6800042
3460, 6700043, 6700044, 6800044, 6800043
3461, 6700044, 6700045, 6800045, 6800044
3462, 6700045, 6700046, 6800046, 6800045
3463, 6700046, 6700047, 6800047, 6800046
3464, 6700047, 6700048, 6800048, 6800047
3465, 6700048, 6700049, 6800049, 6800048
3466, 6700049, 6700050, 6800050, 6800049
3467, 6700050, 6700051, 6800051, 6800050
3468, 6700051, 6700052, 6800052, 6800051
3469, 6800001, 6800002, 6900002, 6900001
3470, 6800002, 6800003, 6900003, 6900002
3471, 6800003, 6800004, 6900004, 6900003
3472, 6800004, 6800005, 6900005, 6900004
3473, 6800005, 6800006, 6900006, 6900005
3474, 6800006, 6800007, 6900007, 6900006
3475, 6800007, 6800008, 6900008, 6900007
3476, 6800008, 6800009, 6900009, 6900008
3477, 6800009, 6800010, 6900010, 6900009
3478, 6800010, 6800011, 6900011, 6900010
3479, 6800011, 6800012, 6900012, 6900011
3480, 6800012, 6800013, 6900013, 6900012
3481, 6800013, 6800014, 6900014, 6900013
3482, 6800014, 6800015, 6900015, 6900014
3483, 6800015, 6800016, 6900016, 6900015
3484, 6800016, 6800017, 6900017, 6900016
3485, 6800017, 6800018, 6900018, 6900017
3486, 6800018, 6800019, 6900019, 6900018
3487, 6800019, 6800020, 6900020, 6900019
3488, 6800020, 6800021, 6900021, 6900020
3489, 6800021, 6800022, 6900022, 6900021
3490, 6800022, 6800023, 6900023, 6900022
3491, 6800023, 6800024, 6900024, 6900023
3492, 6800024, 6800025, 6900025, 6900024
3493, 6800025, 6800026, 6900026, 6900025
3494, 6800026, 6800027, 6900027, 6900026
3495, 6800027, 6800028, 6900028, 6900027
3496, 6800028, 6800029, 6900029, 6900028
3497, 6800029, 6800030, 6900030, 6900029
3498, 6800030, 6800031, 6900031, 6900030
3499, 6800031, 6800032, 6900032, 6900031
3500, 6800032, 6800033, 6900033, 6900032
3501, 6800033, 6800034, 6900034, 6900033
3502, 6800034, 6800035, 6900035, 6900034
3503, 6800035, 6800036, 6900036, 6900035
3504, 6800036, 6800037, 6900037, 6900036
3505, 6800037, 6800038, 6900038, 6900037
3506, 6800038, 6800039, 6900039, 6900038
3507, 6800039, 6800040, 6900040, 6900039
3508, 6800040, 6800041, 6900041, 6900040
3509, 6800041, 6800042, 6900042, 6900041
3510, 6800042, 6800043, 6900043, 6900042
3511, 6800043, 6800044, 6900044, 6900043
3512, 6800044, 6800045, 6900045, 6900044
3513, 6800045, 6800046, 6900046, 6900045
3514, 6800046, 6800047, 6900047, 6900046
3515, 6800047, 6800048, 6900048, 6900047
3516, 6800048, 6800049, 6900049, 6900048
3517, 6800049, 6800050, 6900050, 6900049
3518, 6800050, 6800051, 6900051, 6900050
3519, 6800051, 6800052, 6900052, 6900051
3520, 6900001, 6900002, 7000002, 7000001
3521, 6900002, 6900003, 7000003, 7000002
3522, 6900003, 6900004, 7000004, 7000003
3523, 6900004, 6900005, 7000005, 7000004
3524, 6900005, 6900006, 7000006, 7000005
3525, 6900006, 6900007, 7000007, 7000006
3526, 6900007, 6900008, 7000008, 7000007
3527, 6900008, 6900009, 7000009, 7000008
3528, 6900009, 6900010, 7000010, 7000009
3529, 6900010, 6900011, 7000011, 7000010
3530, 6900011, 6900012, 7000012, 7000011
3531, 6900012, 6900013, 7000013, 7000012
3532, 6900013, 6900014, 7000014, 7000013
3533, 6900014, 6900015, 7000015, 7000014
3534, 6900015, 6900016, 7000016, 7000015
3535, 6900016, 6900017, 7000017, 7000016
3536, 6900017, 6900018, 7000018, 7000017
3537, 6900018, 6900019, 7000019, 7000018
3538, 6900019, 6900020, 7000020, 7000019
3539, 6900020, 6900021, 7000021, 7000020
3540, 6900021, 6900022, 7000022, 7000021
3541, 6900022, 6900023, 7000023, 7000022
3542, 6900023, 6900024, 7000024, 7000023
3543, 6900024, 6900025, 7000025, 7000024
3544, 6900025, 6900026, 7000026, 7000025
3545, 6900026, 6900027, 7000027, 7000026
3546, 6900027, 6900028, 7000028, 7000027
3547, 6900028, 6900029, 7000029, 7000028
3548, 6900029, 6900030, 7000030, 7000029
3549, 6900030, 6900031, 7000031, 7000030
3550, 6900031, 6900032, 7000032, 7000031
3551, 6900032, 6900033, 7000033, 7000032
3552, 6900033, 6900034, 7000034, 7000033
3553, 6900034, 6900035, 7000035, 7000034
3554, 6900035, 6900036, 7000036, 7000035
3555, 6900036, 6900037, 7000037, 7000036
3556, 6900037, 6900038, 7000038, 7000037
3557, 6900038, 6900039, 7000039, 7000038
3558, 6900039, 6900040, 7000040, 7000039
3559, 6900040, 6900041, 7000041, 7000040
3560, 6900041, 6900042, 7000042, 7000041
3561, 6900042, 6900043, 7000043, 7000042
3562, 6900043, 6900044, 7000044, 7000043
3563, 6900044, 6900045, 7000045, 7000044
3564, 6900045, 6900046, 7000046, 7000045
3565, 6900046, 6900047, 7000047, 7000046
3566, 6900047, 6900048, 7000048, 7000047
3567, 6900048, 6900049, 7000049, 7000048
3568, 6900049, 6900050, 7000050, 7000049
3569, 6900050, 6900051, 7000051, 7000050
3570, 6900051, 6900052, 7000052, 7000051
3571, 7000001, 7000002, 7100002, 7100001
3572, 7000002, 7000003, 7100003, 7100002
3573, 7000003, 7000004, 7100004, 7100003
3574, 7000004, 7000005, 7100005, 7100004
3575, 7000005, 7000006, 7100006, 7100005
3576, 7000006, 7000007, 7100007, 7100006
3577, 7000007, 7000008, 7100008, 7100007
3578, 7000008, 7000009, 7100009, 7100008
3579, 7000009, 7000010, 7100010, 7100009
3580, 7000010, 7000011, 7100011, 7100010
3581, 7000011, 7000012, 7100012, 7100011
3582, 7000012, 7000013, 7100013, 7100012
3583, 7000013, 7000014, 7100014, 7100013
3584, 7000014, 7000015, 7100015, 7100014
3585, 7000015, 7000016, 7100016, 7100015
3586, 7000016, 7000017, 7100017, 7100016
3587, 7000017, 7000018, 7100018, 7100017
3588, 7000018, 7000019, 7100019, 7100018
3589, 7000019, 7000020, 7100020, 7100019
3590, 7000020, 7000021, 7100021, 7100020
3591, 7000021, 7000022, 7100022, 7100021
3592, 7000022, 7000023, 7100023, 7100022
3593, 7000023, 7000024, 7100024, 7100023
3594, 7000024, 7000025, 7100025, 7100024
3595, 7000025, 7000026, 7100026, 7100025
3596, 7000026, 7000027, 7100027, 7100026
3597, 7000027, 7000028, 7100028, 7100027
3598, 7000028, 7000029, 7100029, 7100028
3599, 7000029, 7000030, 7100030, 7100029
3600, 7000030, 7000031, 7100031, 7100030
3601, 7000031, 7000032, 7100032, 7100031
3602, 7000032, 7000033, 7100033, 7100032
3603, 7000033, 7000034, 7100034, 7100033
3604, 7000034, 7000035, 7100035, 7100034
3605, 7000035, 7000036, 7100036, 7100035
3606, 7000036, 7000037, 7100037, 7100036
3607, 7000037, 7000038, 7100038, 7100037
3608, 7000038, 7000039, 7100039, 7100038
3609, 7000039, 7000040, 7100040, 7100039
3610, 7000040, 7000041, 7100041, 7100040
3611, 7000041, 7000042, 7100042, 7100041
3612, 7000042, 7000043, 7100043, 7100042
3613, 7000043, 7000044, 7100044, 7100043
3614, 7000044, 7000045, 7100045, 7100044
3615, 7000045, 7000046, 7100046, 7100045
3616, 7000046, 7000047, 7100047, 7100046
3617, 7000047, 7000048, 7100048, 7100047
3618, 7000048, 7000049, 7100049, 7100048
3619, 7000049, 7000050, 7100050, 7100049
3620, 7000050, 7000051, 7100051, 7100050
3621, 7000051, 7000052, 7100052, 7100051
3622, 7100001, 7100002, 7200002, 7200001
3623, 7100002, 7100003, 7200003, 7200002
3624, 7100003, 7100004, 7200004, 7200003
3625, 7100004, 7100005, 7200005, 7200004
3626, 7100005, 7100006, 7200006, 7200005
3627, 7100006, 7100007, 7200007, 7200006
3628, 7100007, 7100008, 7200008, 7200007
3629, 7100008, 7100009, 7200009, 7200008
3630, 7100009, 7100010, 7200010, 7200009
3631, 7100010, 7100011, 7200011, 7200010
3632, 7100011, 7100012, 7200012, 7200011
3633, 7100012, 7100013, 7200013, 7200012
3634, 7100013, 7100014, 7200014, 7200013
3635, 7100014, 7100015, 7200015, 7200014
3636, 7100015, 7100016, 7200016, 7200015
3637, 7100016, 7100017, 7200017, 7200016
3638, 7100017, 7100018, 7200018, 7200017
3639, 7100018, 7100019, 7200019, 7200018
3640, 7100019, 7100020, 7200020, 7200019
3641, 7100020, 7100021, 7200021, 7200020
3642, 7100021, 7100022, 7200022, 7200021
3643, 7100022, 7100023, 7200023, 7200022
3644, 7100023, 7100024, 7200024, 7200023
3645, 7100024, 7100025, 7200025, 7200024
3646, 7100025, 7100026, 7200026, 7200025
3647, 7100026, 7100027, 7200027, 7200026
3648, 7100027, 7100028, 7200028, 7200027
3649, 7100028, 7100029, 7200029, 7200028
3650, 7100029, 7100030, 7200030, 7200029
3651, 7100030, 7100031, 7200031, 7200030
3652, 7100031, 7100032, 7200032, 7200031
3653, 7100032, 7100033, 7200033, 7200032
3654, 7100033, 7100034, 7200034, 7200033
3655, 7100034, 7100035, 7200035, 7200034
3656, 7100035, 7100036, 7200036, 7200035
3657, 7100036, 7100037, 7200037, 7200036
3658, 7100037, 7100038, 7200038, 7200037
3659, 7100038, 7100039, 7200039, 7200038
3660, 7100039, 7100040, 7200040, 7200039
3661, 7100040, 7100041, 7200041, 7200040
3662, 7100041, 7100042, 7200042, 7200041
3663, 7100042, 7100043, 7200043, 7200042
3664, 7100043, 7100044, 7200044, 7200043
3665, 7100044, 7100045, 7200045, 7200044
3666, 7100045, 7100046, 7200046, 7200045
3667, 7100046, 7100047, 7200047, 7200046
3668, 7100047, 7100048, 7200048, 7200047
3669, 7100048, 7100049, 7200049, 7200048
3670, 7100049, 7100050, 7200050, 7200049
3671, 7100050, 7100051, 7200051, 7200050
3672, 7100051, 7100052, 7200052, 7200051
3673, 7200001, 7200002, 7300002, 7300001
3674, 7200002, 7200003, 7300003, 7300002
3675, 7200003, 7200004, 7300004, 7300003
3676, 7200004, 7200005, 7300005, 7300004
3677, 7200005, 7200006, 7300006, 7300005
3678, 7200006, 7200007, 7300007, 7300006
3679, 7200007, 7200008, 7300008, 7300007
3680, 7200008, 7200009, 7300009, 7300008
3681, 7200009, 7200010, 7300010, 7300009
3682, 7200010, 7200011, 7300011, 7300010
3683, 7200011, 7200012, 7300012, 7300011
3684, 7200012, 7200013, 7300013, 7300012
3685, 7200013, 7200014, 7300014, 7300013
3686, 7200014, 7200015, 7300015, 7300014
3687, 7200015, 7200016, 7300016, 7300015
3688, 7200016, 7200017, 7300017, 7300016
3689, 7200017, 7200018, 7300018, 7300017
3690, 7200018, 7200019, 7300019, 7300018
3691, 7200019, 7200020, 7300020, 7300019
3692, 7200020, 7200021, 7300021, 7300020
3693, 7200021, 7200022, 7300022, 7300021
3694, 7200022, 7200023, 7300023, 7300022
3695, 7200023, 7200024, 7300024, 7300023
3696, 7200024, 7200025, 7300025, 7300024
3697, 7200025, 7200026, 7300026, 7300025
3698, 7200026, 7200027, 7300027, 7300026
3699, 7200027, 7200028, 7300028, 7300027
3700, 7200028, 7200029, 7300029, 7300028
3701, 7200029, 7200030, 7300030, 7300029
3702, 7200030, 7200031, 7300031, 7300030
3703, 7200031, 7200032, 7300032, 7300031
3704, 7200032, 7200033, 7300033, 7300032
3705, 7200033, 7200034, 7300034, 7300033
3706, 7200034, 7200035, 7300035, 7300034
3707, 7200035, 7200036, 7300036, 7300035
3708, 7200036, 7200037, 7300037, 7300036
3709, 7200037, 7200038, 7300038, 7300037
3710, 7200038, 7200039, 7300039, 7300038
3711, 7200039, 7200040, 7300040, 7300039
3712, 7200040, 7200041, 7300041, 7300040
3713, 7200041, 7200042, 7300042, 7300041
3714, 7200042, 7200043, 7300043, 7300042
3715, 7200043, 7200044, 7300044, 7300043
3716, 7200044, 7200045, 7300045, 7300044
3717, 7200045, 7200046, 7300046, 7300045
3718, 7200046, 7200047, 7300047, 7300046
3719, 7200047, 7200048, 7300048, 7300047
3720, 7200048, 7200049, 7300049, 7300048
3721, 7200049, 7200050, 7300050, 7300049
3722, 7200050, 7200051, 7300051, 7300050
3723, 7200051, 7200052, 7300052, 7300051
3724, 7300001, 7300002, 7400002, 7400001
3725, 7300002, 7300003, 7400003, 7400002
3726, 7300003, 7300004, 7400004, 7400003
3727, 7300004, 7300005, 7400005, 7400004
3728, 7300005, 7300006, 7400006, 7400005
3729, 7300006, 7300007, 7400007, 7400006
3730, 7300007, 7300008, 7400008, 7400007
3731, 7300008, 7300009, 7400009, 7400008
3732, 7300009, 7300010, 7400010, 7400009
3733, 7300010, 7300011, 7400011, 7400010
3734, 7300011, 7300012, 7400012, 7400011
3735, 7300012, 7300013, 7400013, 7400012
3736, 7300013, 7300014, 7400014, 7400013
3737, 7300014, 7300015, 7400015, 7400014
3738, 7300015, 7300016, 7400016, 7400015
3739, 7300016, 7300017, 7400017, 7400016
3740, 7300017, 7300018, 7400018, 7400017
3741, 7300018, 7300019, 7400019, 7400018
3742, 7300019, 7300020, 7400020, 7400019
3743, 7300020, 7300021, 7400021, 7400020
3744, 7300021, 7300022, 7400022, 7400021
3745, 7300022, 7300023, 7400023, 7400022
3746, 7300023, 7300024, 7400024, 7400023
3747, 7300024, 7300025, 7400025, 7400024
3748, 7300025, 7300026, 7400026, 7400025
3749, 7300026, 7300027, 7400027, 7400026
3750, 7300027, 7300028, 7400028, 7400027
3751, 7300028, 7300029, 7400029, 7400028
3752, 7300029, 7300030, 7400030, 7400029
3753, 7300030, 7300031, 7400031, 7400030
3754, 7300031, 7300032, 7400032, 7400031
3755, 7300032, 7300033, 7400033, 7400032
3756, 7300033, 7300034, 7400034, 7400033
3757, 7300034, 7300035, 7400035, 7400034
3758, 7300035, 7300036, 7400036, 7400035
3759, 7300036, 7300037, 7400037, 7400036
3760, 7300037, 7300038, 7400038, 7400037
3761, 7300038, 7300039, 7400039, 7400038
3762, 7300039, 7300040, 7400040, 7400039
3763, 7300040, 7300041, 7400041, 7400040
3764, 7300041, 7300042, 7400042, 7400041
3765, 7300042, 7300043, 7400043, 7400042
3766, 7300043, 7300044, 7400044, 7400043
3767, 7300044, 7300045, 7400045, 7400044
3768, 7300045, 7300046, 7400046, 7400045
3769, 7300046, 7300047, 7400047, 7400046
3770, 7300047, 7300048, 7400048, 7400047
3771, 7300048, 7300049, 7400049, 7400048
3772, 7300049, 7300050, 7400050, 7400049
3773, 7300050, 7300051, 7400051, 7400050
3774, 7300051, 7300052, 7400052, 7400051
3775, 7400001, 7400002, 7500002, 7500001
3776, 7400002, 7400003, 7500003, 7500002
3777, 7400003, 7400004, 7500004, 7500003
3778, 7400004, 7400005, 7500005, 7500004
3779, 7400005, 7400006, 7500006, 7500005
3780, 7400006, 7400007, 7500007, 7500006
3781, 7400007, 7400008, 7500008, 7500007
3782, 7400008, 7400009, 7500009, 7500008
3783, 7400009, 7400010, 7500010, 7500009
3784, 7400010, 7400011, 7500011, 7500010
3785, 7400011, 7400012, 7500012, 7500011
3786, 7400012, 7400013, 7500013, 7500012
3787, 7400013, 7400014, 7500014, 7500013
3788, 7400014, 7400015, 7500015, 7500014
3789, 7400015, 7400016, 7500016, 7500015
3790, 7400016, 7400017, 7500017, 7500016
3791, 7400017, 7400018, 7500018, 7500017
3792, 7400018, 7400019, 7500019, 7500018
3793, 7400019, 7400020, 7500020, 7500019
3794, 7400020, 7400021, 7500021, 7500020
3795, 7400021, 7400022, 7500022, 7500021
3796, 7400022, 7400023, 7500023, 7500022
3797, 7400023, 7400024, 7500024, 7500023
3798, 7400024, 7400025, 7500025, 7500024
3799, 7400025, 7400026, 7500026, 7500025
3800, 7400026, 7400027, 7500027, 7500026
3801, 7400027, 7400028, 7500028, 7500027
3802, 7400028, 7400029, 7500029, 7500028
3803, 7400029, 7400030, 7500030, 7500029
3804, 7400030, 7400031, 7500031, 7500030
3805, 7400031, 7400032, 7500032, 7500031
3806, 7400032, 7400033, 7500033, 7500032
3807, 7400033, 7400034, 7500034, 7500033
3808, 7400034, 7400035, 7500035, 7500034
3809, 7400035, 7400036, 7500036, 7500035
3810, 7400036, 7400037, 7500037, 7500036
3811, 7400037, 7400038, 7500038, 7500037
3812, 7400038, 7400039, 7500039, 7500038
3813, 7400039, 7400040, 7500040, 7500039
3814, 7400040, 7400041, 7500041, 7500040
3815, 7400041, 7400042, 7500042, 7500041
3816, 7400042, 7400043, 7500043, 7500042
3817, 7400043, 7400044, 7500044, 7500043
3818, 7400044, 7400045, 7500045, 7500044
3819, 7400045, 7400046, 7500046, 7500045
3820, 7400046, 7400047, 7500047, 7500046
3821, 7400047, 7400048, 7500048, 7500047
3822, 7400048, 7400049, 7500049, 7500048
3823, 7400049, 7400050, 7500050, 7500049
3824, 7400050, 7400051, 7500051, 7500050
3825, 7400051, 7400052, 7500052, 7500051
3826, 7500001, 7500002, 7600002, 7600001
3827, 7500002, 7500003, 7600003, 7600002
3828, 7500003, 7500004, 7600004, 7600003
3829, 7500004, 7500005, 7600005, 7600004
3830, 7500005, 7500006, 7600006, 7600005
3831, 7500006, 7500007, 7600007, 7600006
3832, 7500007, 7500008, 7600008, 7600007
3833, 7500008, 7500009, 7600009, 7600008
3834, 7500009, 7500010, 7600010, 7600009
3835, 7500010, 7500011, 7600011, 7600010
3836, 7500011, 7500012, 7600012, 7600011
3837, 7500012, 7500013, 7600013, 7600012
3838, 7500013, 7500014, 7600014, 7600013
3839, 7500014, 7500015, 7600015, 7600014
3840, 7500015, 7500016, 7600016, 7600015
3841, 7500016, 7500017, 7600017, 7600016
3842, 7500017, 7500018, 7600018, 7600017
3843, 7500018, 7500019, 7600019, 7600018
3844, 7500019, 7500020, 7600020, 7600019
3845, 7500020, 7500021, 7600021, 7600020
3846, 7500021, 7500022, 7600022, 7600021
3847, 7500022, 7500023, 7600023, 7600022
3848, 7500023, 7500024, 7600024, 7600023
3849, 7500024, 7500025, 7600025, 7600024
3850, 7500025, 7500026, 7600026, 7600025
3851, 7500026, 7500027, 7600027, 7600026
3852, 7500027, 7500028, 7600028, 7600027
3853, 7500028, 7500029, 7600029, 7600028
3854, 7500029, 7500030, 7600030, 7600029
3855, 7500030, 7500031, 7600031, 7600030
3856, 7500031, 7500032, 7600032, 7600031
3857, 7500032, 7500033, 7600033, 7600032
3858, 7500033, 7500034, 7600034, 7600033
3859, 7500034, 7500035, 7600035, 7600034
3860, 7500035, 7500036, 7600036, 7600035
3861, 7500036, 7500037, 7600037, 7600036
3862, 7500037, 7500038, 7600038, 7600037
3863, 7500038, 7500039, 7600039, 7600038
3864, 7500039, 7500040, 7600040, 7600039
3865, 7500040, 7500041, 7600041, 7600040
3866, 7500041, 7500042, 7600042, 7600041
3867, 7500042, 7500043, 7600043, 7600042
3868, 7500043, 7500044, 7600044, 7600043
3869, 7500044, 7500045, 7600045, 7600044
3870, 7500045, 7500046, 7600046, 7600045
3871, 7500046, 7500047, 7600047, 7600046
3872, 7500047, 7500048, 7600048, 7600047
3873, 7500048, 7500049, 7600049, 7600048
3874, 7500049, 7500050, 7600050, 7600049
3875, 7500050, 7500051, 7600051, 7600050
3876, 7500051, 7500052, 7600052, 7600051
3877, 7600001, 7600002, 7700002, 7700001
3878, 7600002, 7600003, 7700003, 7700002
3879, 7600003, 7600004, 7700004, 7700003
3880, 7600004, 7600005, 7700005, 7700004
3881, 7600005, 7600006, 7700006, 7700005
3882, 7600006, 7600007, 7700007, 7700006
3883, 7600007, 7600008, 7700008, 7700007
3884, 7600008, 7600009, 7700009, 7700008
3885, 7600009, 7600010, 7700010, 7700009
3886, 7600010, 7600011, 7700011, 7700010
3887, 7600011, 7600012, 7700012, 7700011
3888, 7600012, 7600013, 7700013, 7700012
3889, 7600013, 7600014, 7700014, 7700013
3890, 7600014, 7600015, 7700015, 7700014
3891, 7600015, 7600016, 7700016, 7700015
3892, 7600016, 7600017, 7700017, 7700016
3893, 7600017, 7600018, 7700018, 7700017
3894, 7600018, 7600019, 7700019, 7700018
3895, 7600019, 7600020, 7700020, 7700019
3896, 7600020, 7600021, 7700021, 7700020
3897, 7600021, 7600022, 7700022, 7700021
3898, 7600022, 7600023, 7700023, 7700022
3899, 7600023, 7600024, 7700024, 7700023
3900, 7600024, 7600025, 7700025, 7700024
3901, 7600025, 7600026, 7700026, 7700025
3902, 7600026, 7600027, 7700027, 7700026
3903, 7600027, 7600028, 7700028, 7700027
3904, 7600028, 7600029, 7700029, 7700028
3905, 7600029, 7600030, 7700030, 7700029
3906, 7600030, 7600031, 7700031, 7700030
3907, 7600031, 7600032, 7700032, 7700031
3908, 7600032, 7600033, 7700033, 7700032
3909, 7600033, 7600034, 7700034, 7700033
3910, 7600034, 7600035, 7700035, 7700034
3911, 7600035, 7600036, 7700036, 7700035
3912, 7600036, 7600037, 7700037, 7700036
3913, 7600037, 7600038, 7700038, 7700037
3914, 7600038, 7600039, 7700039, 7700038
3915, 7600039, 7600040, 7700040, 7700039
3916, 7600040, 7600041, 7700041, 7700040
3917, 7600041, 7600042, 7700042, 7700041
3918, 7600042, 7600043, 7700043, 7700042
3919, 7600043, 7600044, 7700044, 7700043
3920, 7600044, 7600045, 7700045, 7700044
3921, 7600045, 7600046, 7700046, 7700045
3922, 7600046, 7600047, 7700047, 7700046
3923, 7600047, 7600048, 7700048, 7700047
3924, 7600048, 7600049, 7700049, 7700048
3925, 7600049, 7600050, 7700050, 7700049
3926, 7600050, 7600051, 7700051, 7700050
3927, 7600051, 7600052, 7700052, 7700051
3928, 7700001, 7700002, 7800002, 7800001
3929, 7700002, 7700003, 7800003, 7800002
3930, 7700003, 7700004, 7800004, 7800003
3931, 7700004, 7700005, 7800005, 7800004
3932, 7700005, 7700006, 7800006, 7800005
3933, 7700006, 7700007, 7800007, 7800006
3934, 7700007, 7700008, 7800008, 7800007
3935, 7700008, 7700009, 7800009, 7800008
3936, 7700009, 7700010, 7800010, 7800009
3937, 7700010, 7700011, 7800011, 7800010
3938, 7700011, 7700012, 7800012, 7800011
3939, 7700012, 7700013, 7800013, 7800012
3940, 7700013, 7700014, 7800014, 7800013
3941, 7700014, 7700015, 7800015, 7800014
3942, 7700015, 7700016, 7800016, 7800015
3943, 7700016, 7700017, 7800017, 7800016
3944, 7700017, 7700018, 7800018, 7800017
3945, 7700018, 7700019, 7800019, 7800018
3946, 7700019, 7700020, 7800020, 7800019
3947, 7700020, 7700021, 7800021, 7800020
3948, 7700021, 7700022, 7800022, 7800021
3949, 7700022, 7700023, 7800023, 7800022
3950, 7700023, 7700024, 7800024, 7800023
3951, 7700024, 7700025, 7800025, 7800024
3952, 7700025, 7700026, 7800026, 7800025
3953, 7700026, 7700027, 7800027, 7800026
3954, 7700027, 7700028, 7800028, 7800027
3955, 7700028, 7700029, 7800029, 7800028
3956, 7700029, 7700030, 7800030, 7800029
3957, 7700030, 7700031, 7800031, 7800030
3958, 7700031, 7700032, 7800032, 7800031
3959, 7700032, 7700033, 7800033, 7800032
3960, 7700033, 7700034, 7800034, 7800033
3961, 7700034, 7700035, 7800035, 7800034
3962, 7700035, 7700036, 7800036, 7800035
3963, 7700036, 7700037, 7800037, 7800036
3964, 7700037, 7700038, 7800038, 7800037
3965, 7700038, 7700039, 7800039, 7800038
3966, 7700039, 7700040, 7800040, 7800039
3967, 7700040, 7700041, 7800041, 7800040
3968, 7700041, 7700042, 7800042, 7800041
3969, 7700042, 7700043, 7800043, 7800042
3970, 7700043, 7700044, 7800044, 7800043
3971, 7700044, 7700045, 7800045, 7800044
3972, 7700045, 7700046, 7800046, 7800045
3973, 7700046, 7700047, 7800047, 7800046
3974, 7700047, 7700048, 7800048, 7800047
3975, 7700048, 7700049, 7800049, 7800048
3976, 7700049, 7700050, 7800050, 7800049
3977, 7700050, 7700051, 7800051, 7800050
3978, 7700051, 7700052, 7800052, 7800051
3979, 7800001, 7800002, 7900002, 7900001
3980, 7800002, 7800003, 7900003, 7900002
3981, 7800003, 7800004, 7900004, 7900003
3982, 7800004, 7800005, 7900005, 7900004
3983, 7800005, 7800006, 7900006, 7900005
3984, 7800006, 7800007, 7900007, 7900006
3985, 7800007, 7800008, 7900008, 7900007
3986, 7800008, 7800009, 7900009, 7900008
3987, 7800009, 7800010, 7900010, 7900009
3988, 7800010, 7800011, 7900011, 7900010
3989, 7800011, 7800012, 7900012, 7900011
3990, 7800012, 7800013, 7900013, 7900012
3991, 7800013, 7800014, 7900014, 7900013
3992, 7800014, 7800015, 7900015, 7900014
3993, 7800015, 7800016, 7900016, 7900015
3994, 7800016, 7800017, 7900017, 7900016
3995, 7800017, 7800018, 7900018, 7900017
3996, 7800018, 7800019, 7900019, 7900018
3997, 7800019, 7800020, 7900020, 7900019
3998, 7800020, 7800021, 7900021, 7900020
3999, 7800021, 7800022, 7900022, 7900021
4000, 7800022, 7800023, 7900023, 7900022
4001, 7800023, 7800024, 7900024, 7900023
4002, 7800024, 7800025, 7900025, 7900024
4003, 7800025, 7800026, 7900026, 7900025
4004, 7800026, 7800027, 7900027, 7900026
4005, 7800027, 7800028, 7900028, 7900027
4006, 7800028, 7800029, 7900029, 7900028
4007, 7800029, 7800030, 7900030, 7900029
4008, 7800030, 7800031, 7900031, 7900030
4009, 7800031, 7800032, 7900032, 7900031
4010, 7800032, 7800033, 7900033, 7900032
4011, 7800033, 7800034, 7900034, 7900033
4012, 7800034, 7800035, 7900035, 7900034
4013, 7800035, 7800036, 7900036, 7900035
4014, 7800036, 7800037, 7900037, 7900036
4015, 7800037, 7800038, 7900038, 7900037
4016, 7800038, 7800039, 7900039, 7900038
4017, 7800039, 7800040, 7900040, 7900039
4018, 7800040, 7800041, 7900041, 7900040
4019, 7800041, 7800042, 7900042, 7900041
4020, 7800042, 7800043, 7900043, 7900042
4021, 7800043, 7800044, 7900044, 7900043
4022, 7800044, 7800045, 7900045, 7900044
4023, 7800045, 7800046, 7900046, 7900045
4024, 7800046, 7800047, 7900047, 7900046
4025, 7800047, 7800048, 7900048, 7900047
4026, 7800048, 7800049, 7900049, 7900048
4027, 7800049, 7800050, 7900050, 7900049
4028, 7800050, 7800051, 7900051, 7900050
4029, 7800051, 7800052, 7900052, 7900051
4030, 7900001, 7900002, 8000002, 8000001
4031, 7900002, 7900003, 8000003, 8000002
4032, 7900003, 7900004, 8000004, 8000003
4033, 7900004, 7900005, 8000005, 8000004
4034, 7900005, 7900006, 8000006, 8000005
4035, 7900006, 7900007, 8000007, 8000006
4036, 7900007, 7900008, 8000008, 8000007
4037, 7900008, 7900009, 8000009, 8000008
4038, 7900009, 7900010, 8000010, 8000009
4039, 7900010, 7900011, 8000011, 8000010
4040, 7900011, 7900012, 8000012, 8000011
4041, 7900012, 7900013, 8000013, 8000012
4042, 7900013, 7900014, 8000014, 8000013
4043, 7900014, 7900015, 8000015, 8000014
4044, 7900015, 7900016, 8000016, 8000015
4045, 7900016, 7900017, 8000017, 8000016
4046, 7900017, 7900018, 8000018, 8000017
4047, 7900018, 7900019, 8000019, 8000018
4048, 7900019, 7900020, 8000020, 8000019
4049, 7900020, 7900021, 8000021, 8000020
4050, 7900021, 7900022, 8000022, 8000021
4051, 7900022, 7900023, 8000023, 8000022
4052, 7900023, 7900024, 8000024, 8000023
4053, 7900024, 7900025, 8000025, 8000024
4054, 7900025, 7900026, 8000026, 8000025
4055, 7900026, 7900027, 8000027, 8000026
4056, 7900027, 7900028, 8000028, 8000027
4057, 7900028, 7900029, 8000029, 8000028
4058, 7900029, 7900030, 8000030, 8000029
4059, 7900030, 7900031, 8000031, 8000030
4060, 7900031, 7900032, 8000032, 8000031
4061, 7900032, 7900033, 8000033, 8000032
4062, 7900033, 7900034, 8000034, 8000033
4063, 7900034, 7900035, 8000035, 8000034
4064, 7900035, 7900036, 8000036, 8000035
4065, 7900036, 7900037, 8000037, 8000036
4066, 7900037, 7900038, 8000038, 8000037
4067, 7900038, 7900039, 8000039, 8000038
4068, 7900039, 7900040, 8000040, 8000039
4069, 7900040, 7900041, 8000041, 8000040
4070, 7900041, 7900042, 8000042, 8000041
4071, 7900042, 7900043, 8000043, 8000042
4072, 7900043, 7900044, 8000044, 8000043
4073, 7900044, 7900045, 8000045, 8000044
4074, 7900045, 7900046, 8000046, 8000045
4075, 7900046, 7900047, 8000047, 8000046
4076, 7900047, 7900048, 8000048, 8000047
4077, 7900048, 7900049, 8000049, 8000048
4078, 7900049, 7900050, 8000050, 8000049
4079, 7900050, 7900051, 8000051, 8000050
4080, 7900051, 7900052, 8000052, 8000051
*ELSET, ELSET=EPIDERMIS
3622, 3623, 3624, 3625, 3626, 3627, 3628, 3629, 3630, 3631, 3632, 3633
3634, 3635, 3636, 3637, 3638, 3639, 3640, 3641, 3642, 3643, 3644, 3645
3646, 3647, 3648, 3649, 3650, 3651, 3652, 3653, 3654, 3655, 3656, 3657
3658, 3659, 3660, 3661, 3662, 3663, 3664, 3665, 3666, 3667, 3668, 3669
3670, 3671, 3672, 3673, 3674, 3675, 3676, 3677, 3678, 3679, 3680, 3681
3682, 3683, 3684, 3685, 3686, 3687, 3688, 3689, 3690, 3691, 3692, 3693
3694, 3695, 3696, 3697, 3698, 3699, 3700, 3701, 3702, 3703, 3704, 3705
3706, 3707, 3708, 3709, 3710, 3711, 3712, 3713, 3714, 3715, 3716, 3717
3718, 3719, 3720, 3721, 3722, 3723, 3724, 3725, 3726, 3727, 3728, 3729
3730, 3731, 3732, 3733, 3734, 3735, 3736, 3737, 3738, 3739, 3740, 3741
3742, 3743, 3744, 3745, 3746, 3747, 3748, 3749, 3750, 3751, 3752, 3753
3754, 3755, 3756, 3757, 3758, 3759, 3760, 3761, 3762, 3763, 3764, 3765
3766, 3767, 3768, 3769, 3770, 3771, 3772, 3773, 3774, 3775, 3776, 3777
3778, 3779, 3780, 3781, 3782, 3783, 3784, 3785, 3786, 3787, 3788, 3789
3790, 3791, 3792, 3793, 3794, 3795, 3796, 3797, 3798, 3799, 3800, 3801
3802, 3803, 3804, 3805, 3806, 3807, 3808, 3809, 3810, 3811, 3812, 3813
3814, 3815, 3816, 3817, 3818, 3819, 3820, 3821, 3822, 3823, 3824, 3825
3826, 3827, 3828, 3829, 3830, 3831, 3832, 3833, 3834, 3835, 3836, 3837
3838, 3839, 3840, 3841, 3842, 3843, 3844, 3845, 3846, 3847, 3848, 3849
3850, 3851, 3852, 3853, 3854, 3855, 3856, 3857, 3858, 3859, 3860, 3861
3862, 3863, 3864, 3865, 3866, 3867, 3868, 3869, 3870, 3871, 3872, 3873
3874, 3875, 3876, 3877, 3878, 3879, 3880, 3881, 3882, 3883, 3884, 3885
3886, 3887, 3888, 3889, 3890, 3891, 3892, 3893, 3894, 3895, 3896, 3897
3898, 3899, 3900, 3901, 3902, 3903, 3904, 3905, 3906, 3907, 3908, 3909
3910, 3911, 3912, 3913, 3914, 3915, 3916, 3917, 3918, 3919, 3920, 3921
3922, 3923, 3924, 3925, 3926, 3927, 3928, 3929, 3930, 3931, 3932, 3933
3934, 3935, 3936, 3937, 3938, 3939, 3940, 3941, 3942, 3943, 3944, 3945
3946, 3947, 3948, 3949, 3950, 3951, 3952, 3953, 3954, 3955, 3956, 3957
3958, 3959, 3960, 3961, 3962, 3963, 3964, 3965, 3966, 3967, 3968, 3969
3970, 3971, 3972, 3973, 3974, 3975, 3976, 3977, 3978, 3979, 3980, 3981
3982, 3983, 3984, 3985, 3986, 3987, 3988, 3989, 3990, 3991, 3992, 3993
3994, 3995, 3996, 3997, 3998, 3999, 4000, 4001, 4002, 4003, 4004, 4005
4006, 4007, 4008, 4009, 4010, 4011, 4012, 4013, 4014, 4015, 4016, 4017
4018, 4019, 4020, 4021, 4022, 4023, 4024, 4025, 4026, 4027, 4028, 4029
4030, 4031, 4032, 4033, 4034, 4035, 4036, 4037, 4038, 4039, 4040, 4041
4042, 4043, 4044, 4045, 4046, 4047, 4048, 4049, 4050, 4051, 4052, 4053
4054, 4055, 4056, 4057, 4058, 4059, 4060, 4061, 4062, 4063, 4064, 4065
4066, 4067, 4068, 4069, 4070, 4071, 4072, 4073, 4074, 4075, 4076, 4077
4078, 4079, 4080
*ELSET, ELSET=DERMIS
1, 2, 3, 4, 5, 6, 7, 8, 9, 10, 11, 12
13, 14, 15, 16, 17, 18, 19, 20, 21, 22, 23, 24
25, 26, 27, 28, 29, 30, 31, 32, 33, 34, 35, 36
37, 38, 39, 40, 41, 42, 43, 44, 45, 46, 47, 48
49, 50, 51, 52, 53, 54, 55, 56, 57, 58, 59, 60
61, 62, 63, 64, 65, 66, 67, 68, 69, 70, 71, 72
73, 74, 75, 76, 77, 78, 79, 80, 81, 82, 83, 84
85, 86, 87, 88, 89, 90, 91, 92, 93, 94, 95, 96
97, 98, 99, 100, 101, 102, 103, 104, 105, 106, 107, 108
109, 110, 111, 112, 113, 114, 115, 116, 117, 118, 119, 120
121, 122, 123, 124, 125, 126, 127, 128, 129, 130, 131, 132
133, 134, 135, 136, 137, 138, 139, 140, 141, 142, 143, 144
145, 146, 147, 148, 149, 150, 151, 152, 153, 154, 155, 156
157, 158, 159, 160, 161, 162, 163, 164, 165, 166, 167, 168
169, 170, 171, 172, 173, 174, 175, 176, 177, 178, 179, 180
181, 182, 183, 184, 185, 186, 187, 188, 189, 190, 191, 192
193, 194, 195, 196, 197, 198, 199, 200, 201, 202, 203, 204
205, 206, 207, 208, 209, 210, 211, 212, 213, 214, 215, 216
217, 218, 219, 220, 221, 222, 223, 224, 225, 226, 227, 228
229, 230, 231, 232, 233, 234, 235, 236, 237, 238, 239, 240
241, 242, 243, 244, 245, 246, 247, 248, 249, 250, 251, 252
253, 254, 255, 256, 257, 258, 259, 260, 261, 262, 263, 264
265, 266, 267, 268, 269, 270, 271, 272, 273, 274, 275, 276
277, 278, 279, 280, 281, 282, 283, 284, 285, 286, 287, 288
289, 290, 291, 292, 293, 294, 295, 296, 297, 298, 299, 300
301, 302, 303, 304, 305, 306, 307, 308, 309, 310, 311, 312
313, 314, 315, 316, 317, 318, 319, 320, 321, 322, 323, 324
325, 326, 327, 328, 329, 330, 331, 332, 333, 334, 335, 336
337, 338, 339, 340, 341, 342, 343, 344, 345, 346, 347, 348
349, 350, 351, 352, 353, 354, 355, 356, 357, 358, 359, 360
361, 362, 363, 364, 365, 366, 367, 368, 369, 370, 371, 372
373, 374, 375, 376, 377, 378, 379, 380, 381, 382, 383, 384
385, 386, 387, 388, 389, 390, 391, 392, 393, 394, 395, 396
397, 398, 399, 400, 401, 402, 403, 404, 405, 406, 407, 408
409, 410, 411, 412, 413, 414, 415, 416, 417, 418, 419, 420
421, 422, 423, 424, 425, 426, 427, 428, 429, 430, 431, 432
433, 434, 435, 436, 437, 438, 439, 440, 441, 442, 443, 444
445, 446, 447, 448, 449, 450, 451, 452, 453, 454, 455, 456
457, 458, 459, 460, 461, 462, 463, 464, 465, 466, 467, 468
469, 470, 471, 472, 473, 474, 475, 476, 477, 478, 479, 480
481, 482, 483, 484, 485, 486, 487, 488, 489, 490, 491, 492
493, 494, 495, 496, 497, 498, 499, 500, 501, 502, 503, 504
505, 506, 507, 508, 509, 510, 511, 512, 513, 514, 515, 516
517, 518, 519, 520, 521, 522, 523, 524, 525, 526, 527, 528
529, 530, 531, 532, 533, 534, 535, 536, 537, 538, 539, 540
541, 542, 543, 544, 545, 546, 547, 548, 549, 550, 551, 552
553, 554, 555, 556, 557, 558, 559, 560, 561, 562, 563, 564
565, 566, 567, 568, 569, 570, 571, 572, 573, 574, 575, 576
577, 578, 579, 580, 581, 582, 583, 584, 585, 586, 587, 588
589, 590, 591, 592, 593, 594, 595, 596, 597, 598, 599, 600
601, 602, 603, 604, 605, 606, 607, 608, 609, 610, 611, 612
613, 614, 615, 616, 617, 618, 619, 620, 621, 622, 623, 624
625, 626, 627, 628, 629, 630, 631, 632, 633, 634, 635, 636
637, 638, 639, 640, 641, 642, 643, 644, 645, 646, 647, 648
649, 650, 651, 652, 653, 654, 655, 656, 657, 658, 659, 660
661, 662, 663, 664, 665, 666, 667, 668, 669, 670, 671, 672
673, 674, 675, 676, 677, 678, 679, 680, 681, 682, 683, 684
685, 686, 687, 688, 689, 690, 691, 692, 693, 694, 695, 696
697, 698, 699, 700, 701, 702, 703, 704, 705, 706, 707, 708
709, 710, 711, 712, 713, 714, 715, 716, 717, 718, 719, 720
721, 722, 723, 724, 725, 726, 727, 728, 729, 730, 731, 732
733, 734, 735, 736, 737, 738, 739, 740, 741, 742, 743, 744
745, 746, 747, 748, 749, 750, 751, 752, 753, 754, 755, 756
757, 758, 759, 760, 761, 762, 763, 764, 765, 766, 767, 768
769, 770, 771, 772, 773, 774, 775, 776, 777, 778, 779, 780
781, 782, 783, 784, 785, 786, 787, 788, 789, 790, 791, 792
793, 794, 795, 796, 797, 798, 799, 800, 801, 802, 803, 804
805, 806, 807, 808, 809, 810, 811, 812, 813, 814, 815, 816
817, 818, 819, 820, 821, 822, 823, 824, 825, 826, 827, 828
829, 830, 831, 832, 833, 834, 835, 836, 837, 838, 839, 840
841, 842, 843, 844, 845, 846, 847, 848, 849, 850, 851, 852
853, 854, 855, 856, 857, 858, 859, 860, 861, 862, 863, 864
865, 866, 867, 868, 869, 870, 871, 872, 873, 874, 875, 876
877, 878, 879, 880, 881, 882, 883, 884, 885, 886, 887, 888
889, 890, 891, 892, 893, 894, 895, 896, 897, 898, 899, 900
901, 902, 903, 904, 905, 906, 907, 908, 909, 910, 911, 912
913, 914, 915, 916, 917, 918, 919, 920, 921, 922, 923, 924
925, 926, 927, 928, 929, 930, 931, 932, 933, 934, 935, 936
937, 938, 939, 940, 941, 942, 943, 944, 945, 946, 947, 948
949, 950, 951, 952, 953, 954, 955, 956, 957, 958, 959, 960
961, 962, 963, 964, 965, 966, 967, 968, 969, 970, 971, 972
973, 974, 975, 976, 977, 978, 979, 980, 981, 982, 983, 984
985, 986, 987, 988, 989, 990, 991, 992, 993, 994, 995, 996
997, 998, 999, 1000, 1001, 1002, 1003, 1004, 1005, 1006, 1007, 1008
1009, 1010, 1011, 1012, 1013, 1014, 1015, 1016, 1017, 1018, 1019, 1020
1021, 1022, 1023, 1024, 1025, 1026, 1027, 1028, 1029, 1030, 1031, 1032
1033, 1034, 1035, 1036, 1037, 1038, 1039, 1040, 1041, 1042, 1043, 1044
1045, 1046, 1047, 1048, 1049, 1050, 1051, 1052, 1053, 1054, 1055, 1056
1057, 1058, 1059, 1060, 1061, 1062, 1063, 1064, 1065, 1066, 1067, 1068
1069, 1070, 1071, 1072, 1073, 1074, 1075, 1076, 1077, 1078, 1079, 1080
1081, 1082, 1083, 1084, 1085, 1086, 1087, 1088, 1089, 1090, 1091, 1092
1093, 1094, 1095, 1096, 1097, 1098, 1099, 1100, 1101, 1102, 1103, 1104
1105, 1106, 1107, 1108, 1109, 1110, 1111, 1112, 1113, 1114, 1115, 1116
1117, 1118, 1119, 1120, 1121, 1122, 1123, 1124, 1125, 1126, 1127, 1128
1129, 1130, 1131, 1132, 1133, 1134, 1135, 1136, 1137, 1138, 1139, 1140
1141, 1142, 1143, 1144, 1145, 1146, 1147, 1148, 1149, 1150, 1151, 1152
1153, 1154, 1155, 1156, 1157, 1158, 1159, 1160, 1161, 1162, 1163, 1164
1165, 1166, 1167, 1168, 1169, 1170, 1171, 1172, 1173, 1174, 1175, 1176
1177, 1178, 1179, 1180, 1181, 1182, 1183, 1184, 1185, 1186, 1187, 1188
1189, 1190, 1191, 1192, 1193, 1194, 1195, 1196, 1197, 1198, 1199, 1200
1201, 1202, 1203, 1204, 1205, 1206, 1207, 1208, 1209, 1210, 1211, 1212
1213, 1214, 1215, 1216, 1217, 1218, 1219, 1220, 1221, 1222, 1223, 1224
1225, 1226, 1227, 1228, 1229, 1230, 1231, 1232, 1233, 1234, 1235, 1236
1237, 1238, 1239, 1240, 1241, 1242, 1243, 1244, 1245, 1246, 1247, 1248
1249, 1250, 1251, 1252, 1253, 1254, 1255, 1256, 1257, 1258, 1259, 1260
1261, 1262, 1263, 1264, 1265, 1266, 1267, 1268, 1269, 1270, 1271, 1272
1273, 1274, 1275, 1276, 1277, 1278, 1279, 1280, 1281, 1282, 1283, 1284
1285, 1286, 1287, 1288, 1289, 1290, 1291, 1292, 1293, 1294, 1295, 1296
1297, 1298, 1299, 1300, 1301, 1302, 1303, 1304, 1305, 1306, 1307, 1308
1309, 1310, 1311, 1312, 1313, 1314, 1315, 1316, 1317, 1318, 1319, 1320
1321, 1322, 1323, 1324, 1325, 1326, 1327, 1328, 1329, 1330, 1331, 1332
1333, 1334, 1335, 1336, 1337, 1338, 1339, 1340, 1341, 1342, 1343, 1344
1345, 1346, 1347, 1348, 1349, 1350, 1351, 1352, 1353, 1354, 1355, 1356
1357, 1358, 1359, 1360, 1361, 1362, 1363, 1364, 1365, 1366, 1367, 1368
1369, 1370, 1371, 1372, 1373, 1374, 1375, 1376, 1377, 1378, 1379, 1380
1381, 1382, 1383, 1384, 1385, 1386, 1387, 1388, 1389, 1390, 1391, 1392
1393, 1394, 1395, 1396, 1397, 1398, 1399, 1400, 1401, 1402, 1403, 1404
1405, 1406, 1407, 1408, 1409, 1410, 1411, 1412, 1413, 1414, 1415, 1416
1417, 1418, 1419, 1420, 1421, 1422, 1423, 1424, 1425, 1426, 1427, 1428
1429, 1430, 1431, 1432, 1433, 1434, 1435, 1436, 1437, 1438, 1439, 1440
1441, 1442, 1443, 1444, 1445, 1446, 1447, 1448, 1449, 1450, 1451, 1452
1453, 1454, 1455, 1456, 1457, 1458, 1459, 1460, 1461, 1462, 1463, 1464
1465, 1466, 1467, 1468, 1469, 1470, 1471, 1472, 1473, 1474, 1475, 1476
1477, 1478, 1479, 1480, 1481, 1482, 1483, 1484, 1485, 1486, 1487, 1488
1489, 1490, 1491, 1492, 1493, 1494, 1495, 1496, 1497, 1498, 1499, 1500
1501, 1502, 1503, 1504, 1505, 1506, 1507, 1508, 1509, 1510, 1511, 1512
1513, 1514, 1515, 1516, 1517, 1518, 1519, 1520, 1521, 1522, 1523, 1524
1525, 1526, 1527, 1528, 1529, 1530, 1531, 1532, 1533, 1534, 1535, 1536
1537, 1538, 1539, 1540, 1541, 1542, 1543, 1544, 1545, 1546, 1547, 1548
1549, 1550, 1551, 1552, 1553, 1554, 1555, 1556, 1557, 1558, 1559, 1560
1561, 1562, 1563, 1564, 1565, 1566, 1567, 1568, 1569, 1570, 1571, 1572
1573, 1574, 1575, 1576, 1577, 1578, 1579, 1580, 1581, 1582, 1583, 1584
1585, 1586, 1587, 1588, 1589, 1590, 1591, 1592, 1593, 1594, 1595, 1596
1597, 1598, 1599, 1600, 1601, 1602, 1603, 1604, 1605, 1606, 1607, 1608
1609, 1610, 1611, 1612, 1613, 1614, 1615, 1616, 1617, 1618, 1619, 1620
1621, 1622, 1623, 1624, 1625, 1626, 1627, 1628, 1629, 1630, 1631, 1632
1633, 1634, 1635, 1636, 1637, 1638, 1639, 1640, 1641, 1642, 1643, 1644
1645, 1646, 1647, 1648, 1649, 1650, 1651, 1652, 1653, 1654, 1655, 1656
1657, 1658, 1659, 1660, 1661, 1662, 1663, 1664, 1665, 1666, 1667, 1668
1669, 1670, 1671, 1672, 1673, 1674, 1675, 1676, 1677, 1678, 1679, 1680
1681, 1682, 1683, 1684, 1685, 1686, 1687, 1688, 1689, 1690, 1691, 1692
1693, 1694, 1695, 1696, 1697, 1698, 1699, 1700, 1701, 1702, 1703, 1704
1705, 1706, 1707, 1708, 1709, 1710, 1711, 1712, 1713, 1714, 1715, 1716
1717, 1718, 1719, 1720, 1721, 1722, 1723, 1724, 1725, 1726, 1727, 1728
1729, 1730, 1731, 1732, 1733, 1734, 1735, 1736, 1737, 1738, 1739, 1740
1741, 1742, 1743, 1744, 1745, 1746, 1747, 1748, 1749, 1750, 1751, 1752
1753, 1754, 1755, 1756, 1757, 1758, 1759, 1760, 1761, 1762, 1763, 1764
1765, 1766, 1767, 1768, 1769, 1770, 1771, 1772, 1773, 1774, 1775, 1776
1777, 1778, 1779, 1780, 1781, 1782, 1783, 1784, 1785, 1786, 1787, 1788
1789, 1790, 1791, 1792, 1793, 1794, 1795, 1796, 1797, 1798, 1799, 1800
1801, 1802, 1803, 1804, 1805, 1806, 1807, 1808, 1809, 1810, 1811, 1812
1813, 1814, 1815, 1816, 1817, 1818, 1819, 1820, 1821, 1822, 1823, 1824
1825, 1826, 1827, 1828, 1829, 1830, 1831, 1832, 1833, 1834, 1835, 1836
1837, 1838, 1839, 1840, 1841, 1842, 1843, 1844, 1845, 1846, 1847, 1848
1849, 1850, 1851, 1852, 1853, 1854, 1855, 1856, 1857, 1858, 1859, 1860
1861, 1862, 1863, 1864, 1865, 1866, 1867, 1868, 1869, 1870, 1871, 1872
1873, 1874, 1875, 1876, 1877, 1878, 1879, 1880, 1881, 1882, 1883, 1884
1885, 1886, 1887, 1888, 1889, 1890, 1891, 1892, 1893, 1894, 1895, 1896
1897, 1898, 1899, 1900, 1901, 1902, 1903, 1904, 1905, 1906, 1907, 1908
1909, 1910, 1911, 1912, 1913, 1914, 1915, 1916, 1917, 1918, 1919, 1920
1921, 1922, 1923, 1924, 1925, 1926, 1927, 1928, 1929, 1930, 1931, 1932
1933, 1934, 1935, 1936, 1937, 1938, 1939, 1940, 1941, 1942, 1943, 1944
1945, 1946, 1947, 1948, 1949, 1950, 1951, 1952, 1953, 1954, 1955, 1956
1957, 1958, 1959, 1960, 1961, 1962, 1963, 1964, 1965, 1966, 1967, 1968
1969, 1970, 1971, 1972, 1973, 1974, 1975, 1976, 1977, 1978, 1979, 1980
1981, 1982, 1983, 1984, 1985, 1986, 1987, 1988, 1989, 1990, 1991, 1992
1993, 1994, 1995, 1996, 1997, 1998, 1999, 2000, 2001, 2002, 2003, 2004
2005, 2006, 2007, 2008, 2009, 2010, 2011, 2012, 2013, 2014, 2015, 2016
2017, 2018, 2019, 2020, 2021, 2022, 2023, 2024, 2025, 2026, 2027, 2028
2029, 2030, 2031, 2032, 2033, 2034, 2035, 2036, 2037, 2038, 2039, 2040
2041, 2042, 2043, 2044, 2045, 2046, 2047, 2048, 2049, 2050, 2051, 2052
2053, 2054, 2055, 2056, 2057, 2058, 2059, 2060, 2061, 2062, 2063, 2064
2065, 2066, 2067, 2068, 2069, 2070, 2071, 2072, 2073, 2074, 2075, 2076
2077, 2078, 2079, 2080, 2081, 2082, 2083, 2084, 2085, 2086, 2087, 2088
2089, 2090, 2091, 2092, 2093, 2094, 2095, 2096, 2097, 2098, 2099, 2100
2101, 2102, 2103, 2104, 2105, 2106, 2107, 2108, 2109, 2110, 2111, 2112
2113, 2114, 2115, 2116, 2117, 2118, 2119, 2120, 2121, 2122, 2123, 2124
2125, 2126, 2127, 2128, 2129, 2130, 2131, 2132, 2133, 2134, 2135, 2136
2137, 2138, 2139, 2140, 2141, 2142, 2143, 2144, 2145, 2146, 2147, 2148
2149, 2150, 2151, 2152, 2153, 2154, 2155, 2156, 2157, 2158, 2159, 2160
2161, 2162, 2163, 2164, 2165, 2166, 2167, 2168, 2169, 2170, 2171, 2172
2173, 2174, 2175, 2176, 2177, 2178, 2179, 2180, 2181, 2182, 2183, 2184
2185, 2186, 2187, 2188, 2189, 2190, 2191, 2192, 2193, 2194, 2195, 2196
2197, 2198, 2199, 2200, 2201, 2202, 2203, 2204, 2205, 2206, 2207, 2208
2209, 2210, 2211, 2212, 2213, 2214, 2215, 2216, 2217, 2218, 2219, 2220
2221, 2222, 2223, 2224, 2225, 2226, 2227, 2228, 2229, 2230, 2231, 2232
2233, 2234, 2235, 2236, 2237, 2238, 2239, 2240, 2241, 2242, 2243, 2244
2245, 2246, 2247, 2248, 2249, 2250, 2251, 2252, 2253, 2254, 2255, 2256
2257, 2258, 2259, 2260, 2261, 2262, 2263, 2264, 2265, 2266, 2267, 2268
2269, 2270, 2271, 2272, 2273, 2274, 2275, 2276, 2277, 2278, 2279, 2280
2281, 2282, 2283, 2284, 2285, 2286, 2287, 2288, 2289, 2290, 2291, 2292
2293, 2294, 2295, 2296, 2297, 2298, 2299, 2300, 2301, 2302, 2303, 2304
2305, 2306, 2307, 2308, 2309, 2310, 2311, 2312, 2313, 2314, 2315, 2316
2317, 2318, 2319, 2320, 2321, 2322, 2323, 2324, 2325, 2326, 2327, 2328
2329, 2330, 2331, 2332, 2333, 2334, 2335, 2336, 2337, 2338, 2339, 2340
2341, 2342, 2343, 2344, 2345, 2346, 2347, 2348, 2349, 2350, 2351, 2352
2353, 2354, 2355, 2356, 2357, 2358, 2359, 2360, 2361, 2362, 2363, 2364
2365, 2366, 2367, 2368, 2369, 2370, 2371, 2372, 2373, 2374, 2375, 2376
2377, 2378, 2379, 2380, 2381, 2382, 2383, 2384, 2385, 2386, 2387, 2388
2389, 2390, 2391, 2392, 2393, 2394, 2395, 2396, 2397, 2398, 2399, 2400
2401, 2402, 2403, 2404, 2405, 2406, 2407, 2408, 2409, 2410, 2411, 2412
2413, 2414, 2415, 2416, 2417, 2418, 2419, 2420, 2421, 2422, 2423, 2424
2425, 2426, 2427, 2428, 2429, 2430, 2431, 2432, 2433, 2434, 2435, 2436
2437, 2438, 2439, 2440, 2441, 2442, 2443, 2444, 2445, 2446, 2447, 2448
2449, 2450, 2451, 2452, 2453, 2454, 2455, 2456, 2457, 2458, 2459, 2460
2461, 2462, 2463, 2464, 2465, 2466, 2467, 2468, 2469, 2470, 2471, 2472
2473, 2474, 2475, 2476, 2477, 2478, 2479, 2480, 2481, 2482, 2483, 2484
2485, 2486, 2487, 2488, 2489, 2490, 2491, 2492, 2493, 2494, 2495, 2496
2497, 2498, 2499, 2500, 2501, 2502, 2503, 2504, 2505, 2506, 2507, 2508
2509, 2510, 2511, 2512, 2513, 2514, 2515, 2516, 2517, 2518, 2519, 2520
2521, 2522, 2523, 2524, 2525, 2526, 2527, 2528, 2529, 2530, 2531, 2532
2533, 2534, 2535, 2536, 2537, 2538, 2539, 2540, 2541, 2542, 2543, 2544
2545, 2546, 2547, 2548, 2549, 2550, 2551, 2552, 2553, 2554, 2555, 2556
2557, 2558, 2559, 2560, 2561, 2562, 2563, 2564, 2565, 2566, 2567, 2568
2569, 2570, 2571, 2572, 2573, 2574, 2575, 2576, 2577, 2578, 2579, 2580
2581, 2582, 2583, 2584, 2585, 2586, 2587, 2588, 2589, 2590, 2591, 2592
2593, 2594, 2595, 2596, 2597, 2598, 2599, 2600, 2601, 2602, 2603, 2604
2605, 2606, 2607, 2608, 2609, 2610, 2611, 2612, 2613, 2614, 2615, 2616
2617, 2618, 2619, 2620, 2621, 2622, 2623, 2624, 2625, 2626, 2627, 2628
2629, 2630, 2631, 2632, 2633, 2634, 2635, 2636, 2637, 2638, 2639, 2640
2641, 2642, 2643, 2644, 2645, 2646, 2647, 2648, 2649, 2650, 2651, 2652
2653, 2654, 2655, 2656, 2657, 2658, 2659, 2660, 2661, 2662, 2663, 2664
2665, 2666, 2667, 2668, 2669, 2670, 2671, 2672, 2673, 2674, 2675, 2676
2677, 2678, 2679, 2680, 2681, 2682, 2683, 2684, 2685, 2686, 2687, 2688
2689, 2690, 2691, 2692, 2693, 2694, 2695, 2696, 2697, 2698, 2699, 2700
2701, 2702, 2703, 2704, 2705, 2706, 2707, 2708, 2709, 2710, 2711, 2712
2713, 2714, 2715, 2716, 2717, 2718, 2719, 2720, 2721, 2722, 2723, 2724
2725, 2726, 2727, 2728, 2729, 2730, 2731, 2732, 2733, 2734, 2735, 2736
2737, 2738, 2739, 2740, 2741, 2742, 2743, 2744, 2745, 2746, 2747, 2748
2749, 2750, 2751, 2752, 2753, 2754, 2755, 2756, 2757, 2758, 2759, 2760
2761, 2762, 2763, 2764, 2765, 2766, 2767, 2768, 2769, 2770, 2771, 2772
2773, 2774, 2775, 2776, 2777, 2778, 2779, 2780, 2781, 2782, 2783, 2784
2785, 2786, 2787, 2788, 2789, 2790, 2791, 2792, 2793, 2794, 2795, 2796
2797, 2798, 2799, 2800, 2801, 2802, 2803, 2804, 2805, 2806, 2807, 2808
2809, 2810, 2811, 2812, 2813, 2814, 2815, 2816, 2817, 2818, 2819, 2820
2821, 2822, 2823, 2824, 2825, 2826, 2827, 2828, 2829, 2830, 2831, 2832
2833, 2834, 2835, 2836, 2837, 2838, 2839, 2840, 2841, 2842, 2843, 2844
2845, 2846, 2847, 2848, 2849, 2850, 2851, 2852, 2853, 2854, 2855, 2856
2857, 2858, 2859, 2860, 2861, 2862, 2863, 2864, 2865, 2866, 2867, 2868
2869, 2870, 2871, 2872, 2873, 2874, 2875, 2876, 2877, 2878, 2879, 2880
2881, 2882, 2883, 2884, 2885, 2886, 2887, 2888, 2889, 2890, 2891, 2892
2893, 2894, 2895, 2896, 2897, 2898, 2899, 2900, 2901, 2902, 2903, 2904
2905, 2906, 2907, 2908, 2909, 2910, 2911, 2912, 2913, 2914, 2915, 2916
2917, 2918, 2919, 2920, 2921, 2922, 2923, 2924, 2925, 2926, 2927, 2928
2929, 2930, 2931, 2932, 2933, 2934, 2935, 2936, 2937, 2938, 2939, 2940
2941, 2942, 2943, 2944, 2945, 2946, 2947, 2948, 2949, 2950, 2951, 2952
2953, 2954, 2955, 2956, 2957, 2958, 2959, 2960, 2961, 2962, 2963, 2964
2965, 2966, 2967, 2968, 2969, 2970, 2971, 2972, 2973, 2974, 2975, 2976
2977, 2978, 2979, 2980, 2981, 2982, 2983, 2984, 2985, 2986, 2987, 2988
2989, 2990, 2991, 2992, 2993, 2994, 2995, 2996, 2997, 2998, 2999, 3000
3001, 3002, 3003, 3004, 3005, 3006, 3007, 3008, 3009, 3010, 3011, 3012
3013, 3014, 3015, 3016, 3017, 3018, 3019, 3020, 3021, 3022, 3023, 3024
3025, 3026, 3027, 3028, 3029, 3030, 3031, 3032, 3033, 3034, 3035, 3036
3037, 3038, 3039, 3040, 3041, 3042, 3043, 3044, 3045, 3046, 3047, 3048
3049, 3050, 3051, 3052, 3053, 3054, 3055, 3056, 3057, 3058, 3059, 3060
3061, 3062, 3063, 3064, 3065, 3066, 3067, 3068, 3069, 3070, 3071, 3072
3073, 3074, 3075, 3076, 3077, 3078, 3079, 3080, 3081, 3082, 3083, 3084
3085, 3086, 3087, 3088, 3089, 3090, 3091, 3092, 3093, 3094, 3095, 3096
3097, 3098, 3099, 3100, 3101, 3102, 3103, 3104, 3105, 3106, 3107, 3108
3109, 3110, 3111, 3112, 3113, 3114, 3115, 3116, 3117, 3118, 3119, 3120
3121, 3122, 3123, 3124, 3125, 3126, 3127, 3128, 3129, 3130, 3131, 3132
3133, 3134, 3135, 3136, 3137, 3138, 3139, 3140, 3141, 3142, 3143, 3144
3145, 3146, 3147, 3148, 3149, 3150, 3151, 3152, 3153, 3154, 3155, 3156
3157, 3158, 3159, 3160, 3161, 3162, 3163, 3164, 3165, 3166, 3167, 3168
3169, 3170, 3171, 3172, 3173, 3174, 3175, 3176, 3177, 3178, 3179, 3180
3181, 3182, 3183, 3184, 3185, 3186, 3187, 3188, 3189, 3190, 3191, 3192
3193, 3194, 3195, 3196, 3197, 3198, 3199, 3200, 3201, 3202, 3203, 3204
3205, 3206, 3207, 3208, 3209, 3210, 3211, 3212, 3213, 3214, 3215, 3216
3217, 3218, 3219, 3220, 3221, 3222, 3223, 3224, 3225, 3226, 3227, 3228
3229, 3230, 3231, 3232, 3233, 3234, 3235, 3236, 3237, 3238, 3239, 3240
3241, 3242, 3243, 3244, 3245, 3246, 3247, 3248, 3249, 3250, 3251, 3252
3253, 3254, 3255, 3256, 3257, 3258, 3259, 3260, 3261, 3262, 3263, 3264
3265, 3266, 3267, 3268, 3269, 3270, 3271, 3272, 3273, 3274, 3275, 3276
3277, 3278, 3279, 3280, 3281, 3282, 3283, 3284, 3285, 3286, 3287, 3288
3289, 3290, 3291, 3292, 3293, 3294, 3295, 3296, 3297, 3298, 3299, 3300
3301, 3302, 3303, 3304, 3305, 3306, 3307, 3308, 3309, 3310, 3311, 3312
3313, 3314, 3315, 3316, 3317, 3318, 3319, 3320, 3321, 3322, 3323, 3324
3325, 3326, 3327, 3328, 3329, 3330, 3331, 3332, 3333, 3334, 3335, 3336
3337, 3338, 3339, 3340, 3341, 3342, 3343, 3344, 3345, 3346, 3347, 3348
3349, 3350, 3351, 3352, 3353, 3354, 3355, 3356, 3357, 3358, 3359, 3360
3361, 3362, 3363, 3364, 3365, 3366, 3367, 3368, 3369, 3370, 3371, 3372
3373, 3374, 3375, 3376, 3377, 3378, 3379, 3380, 3381, 3382, 3383, 3384
3385, 3386, 3387, 3388, 3389, 3390, 3391, 3392, 3393, 3394, 3395, 3396
3397, 3398, 3399, 3400, 3401, 3402, 3403, 3404, 3405, 3406, 3407, 3408
3409, 3410, 3411, 3412, 3413, 3414, 3415, 3416, 3417, 3418, 3419, 3420
3421, 3422, 3423, 3424, 3425, 3426, 3427, 3428, 3429, 3430, 3431, 3432
3433, 3434, 3435, 3436, 3437, 3438, 3439, 3440, 3441, 3442, 3443, 3444
3445, 3446, 3447, 3448, 3449, 3450, 3451, 3452, 3453, 3454, 3455, 3456
3457, 3458, 3459, 3460, 3461, 3462, 3463, 3464, 3465, 3466, 3467, 3468
3469, 3470, 3471, 3472, 3473, 3474, 3475, 3476, 3477, 3478, 3479, 3480
3481, 3482, 3483, 3484, 3485, 3486, 3487, 3488, 3489, 3490, 3491, 3492
3493, 3494, 3495, 3496, 3497, 3498, 3499, 3500, 3501, 3502, 3503, 3504
3505, 3506, 3507, 3508, 3509, 3510, 3511, 3512, 3513, 3514, 3515, 3516
3517, 3518, 3519, 3520, 3521, 3522, 3523, 3524, 3525, 3526, 3527, 3528
3529, 3530, 3531, 3532, 3533, 3534, 3535, 3536, 3537, 3538, 3539, 3540
3541, 3542, 3543, 3544, 3545, 3546, 3547, 3548, 3549, 3550, 3551, 3552
3553, 3554, 3555, 3556, 3557, 3558, 3559, 3560, 3561, 3562, 3563, 3564
3565, 3566, 3567, 3568, 3569, 3570, 3571, 3572, 3573, 3574, 3575, 3576
3577, 3578, 3579, 3580, 3581, 3582, 3583, 3584, 3585, 3586, 3587, 3588
3589, 3590, 3591, 3592, 3593, 3594, 3595, 3596, 3597, 3598, 3599, 3600
3601, 3602, 3603, 3604, 3605, 3606, 3607, 3608, 3609, 3610, 3611, 3612
3613, 3614, 3615, 3616, 3617, 3618, 3619, 3620, 3621
*ELSET, ELSET=SKIN_ALL
EPIDERMIS, DERMIS
*SURFACE, TYPE=ELEMENT, NAME=SKIN_SURF
SKIN_ALL,
*NSET, NSET=NBOT
1, 2, 3, 4, 5, 6, 7, 8, 9, 10, 11, 12
13, 14, 15, 16, 17, 18, 19, 20, 21, 22, 23, 24
25, 26, 27, 28, 29, 30, 31, 32, 33, 34, 35, 36
37, 38, 39, 40, 41, 42, 43, 44, 45, 46, 47, 48
49, 50, 51, 52
*NSET, NSET=NAXIS
1, 100001, 200001, 300001, 400001, 500001, 600001, 700001, 800001, 900001, 1000001, 1100001
1200001, 1300001, 1400001, 1500001, 1600001, 1700001, 1800001, 1900001, 2000001, 2100001, 2200001, 2300001
2400001, 2500001, 2600001, 2700001, 2800001, 2900001, 3000001, 3100001, 3200001, 3300001, 3400001, 3500001
3600001, 3700001, 3800001, 3900001, 4000001, 4100001, 4200001, 4300001, 4400001, 4500001, 4600001, 4700001
4800001, 4900001, 5000001, 5100001, 5200001, 5300001, 5400001, 5500001, 5600001, 5700001, 5800001, 5900001
6000001, 6100001, 6200001, 6300001, 6400001, 6500001, 6600001, 6700001, 6800001, 6900001, 7000001, 7100001
7200001, 7300001, 7400001, 7500001, 7600001, 7700001, 7800001, 7900001, 8000001
*NSET, NSET=NRIGHT
52, 100052, 200052, 300052, 400052, 500052, 600052, 700052, 800052, 900052, 1000052, 1100052
1200052, 1300052, 1400052, 1500052, 1600052, 1700052, 1800052, 1900052, 2000052, 2100052, 2200052, 2300052
2400052, 2500052, 2600052, 2700052, 2800052, 2900052, 3000052, 3100052, 3200052, 3300052, 3400052, 3500052
3600052, 3700052, 3800052, 3900052, 4000052, 4100052, 4200052, 4300052, 4400052, 4500052, 4600052, 4700052
4800052, 4900052, 5000052, 5100052, 5200052, 5300052, 5400052, 5500052, 5600052, 5700052, 5800052, 5900052
6000052, 6100052, 6200052, 6300052, 6400052, 6500052, 6600052, 6700052, 6800052, 6900052, 7000052, 7100052
7200052, 7300052, 7400052, 7500052, 7600052, 7700052, 7800052, 7900052, 8000052
*NODE
10000000, 0.000000, 2.550000
10000001, 0.004000, 2.550000
10000002, 0.008000, 2.550000
10000003, 0.012000, 2.550000
10000004, 0.016000, 2.550000
10000005, 0.020000, 2.550000
10001000, 0.000000, 2.558000
10001001, 0.004173, 2.558000
10001002, 0.008347, 2.558000
10001003, 0.012520, 2.558000
10001004, 0.016693, 2.558000
10001005, 0.020867, 2.558000
10002000, 0.000000, 2.567600
10002001, 0.004381, 2.567600
10002002, 0.008763, 2.567600
10002003, 0.013144, 2.567600
10002004, 0.017525, 2.567600
10002005, 0.021907, 2.567600
10003000, 0.000000, 2.579120
10003001, 0.004631, 2.579120
10003002, 0.009262, 2.579120
10003003, 0.013893, 2.579120
10003004, 0.018524, 2.579120
10003005, 0.023155, 2.579120
10004000, 0.000000, 2.592944
10004001, 0.004930, 2.592944
10004002, 0.009861, 2.592944
10004003, 0.014791, 2.592944
10004004, 0.019722, 2.592944
10004005, 0.024652, 2.592944
10005000, 0.000000, 2.609533
10005001, 0.005290, 2.609533
10005002, 0.010580, 2.609533
10005003, 0.015870, 2.609533
10005004, 0.021160, 2.609533
10005005, 0.026449, 2.609533
10006000, 0.000000, 2.629439
10006001, 0.005721, 2.629439
10006002, 0.011442, 2.629439
10006003, 0.017164, 2.629439
10006004, 0.022885, 2.629439
10006005, 0.028606, 2.629439
10007000, 0.000000, 2.653327
10007001, 0.006239, 2.653327
10007002, 0.012478, 2.653327
10007003, 0.018716, 2.653327
10007004, 0.024955, 2.653327
10007005, 0.031194, 2.653327
10008000, 0.000000, 2.681993
10008001, 0.006860, 2.681993
10008002, 0.013720, 2.681993
10008003, 0.020580, 2.681993
10008004, 0.027439, 2.681993
10008005, 0.034299, 2.681993
10009000, 0.000000, 2.716391
10009001, 0.007605, 2.716391
10009002, 0.015210, 2.716391
10009003, 0.022815, 2.716391
10009004, 0.030421, 2.716391
10009005, 0.038026, 2.716391
10010000, 0.000000, 2.757669
10010001, 0.008499, 2.757669
10010002, 0.016999, 2.757669
10010003, 0.025498, 2.757669
10010004, 0.033998, 2.757669
10010005, 0.042497, 2.757669
10011000, 0.000000, 2.807203
10011001, 0.009573, 2.807203
10011002, 0.019145, 2.807203
10011003, 0.028718, 2.807203
10011004, 0.038291, 2.807203
10011005, 0.047864, 2.807203
10012000, 0.000000, 2.866644
10012001, 0.010861, 2.866644
10012002, 0.021721, 2.866644
10012003, 0.032582, 2.866644
10012004, 0.043442, 2.866644
10012005, 0.054303, 2.866644
10013000, 0.000000, 2.937973
10013001, 0.012406, 2.937973
10013002, 0.024812, 2.937973
10013003, 0.037218, 2.937973
10013004, 0.049624, 2.937973
10013005, 0.062030, 2.937973
10014000, 0.000000, 3.023567
10014001, 0.014261, 3.023567
10014002, 0.028521, 3.023567
10014003, 0.042782, 3.023567
10014004, 0.057042, 3.023567
10014005, 0.071303, 3.023567
10015000, 0.000000, 3.123567
10015001, 0.016427, 3.123567
10015002, 0.032855, 3.123567
10015003, 0.049282, 3.123567
10015004, 0.065709, 3.123567
10015005, 0.082136, 3.123567
10016000, 0.000000, 3.223567
10016001, 0.018594, 3.223567
10016002, 0.037188, 3.223567
10016003, 0.055782, 3.223567
10016004, 0.074376, 3.223567
10016005, 0.092970, 3.223567
10017000, 0.000000, 3.323567
10017001, 0.020761, 3.323567
10017002, 0.041521, 3.323567
10017003, 0.062282, 3.323567
10017004, 0.083042, 3.323567
10017005, 0.103803, 3.323567
10018000, 0.000000, 3.423567
10018001, 0.022927, 3.423567
10018002, 0.045855, 3.423567
10018003, 0.068782, 3.423567
10018004, 0.091709, 3.423567
10018005, 0.114636, 3.423567
10019000, 0.000000, 3.523567
10019001, 0.025094, 3.523567
10019002, 0.050188, 3.523567
10019003, 0.075282, 3.523567
10019004, 0.100376, 3.523567
10019005, 0.125470, 3.523567
10020000, 0.000000, 3.623567
10020001, 0.027261, 3.623567
10020002, 0.054521, 3.623567
10020003, 0.081782, 3.623567
10020004, 0.109042, 3.623567
10020005, 0.136303, 3.623567
10021000, 0.000000, 3.723567
10021001, 0.029427, 3.723567
10021002, 0.058855, 3.723567
10021003, 0.088282, 3.723567
10021004, 0.117709, 3.723567
10021005, 0.147136, 3.723567
10022000, 0.000000, 3.823567
10022001, 0.030000, 3.823567
10022002, 0.060000, 3.823567
10022003, 0.090000, 3.823567
10022004, 0.120000, 3.823567
10022005, 0.150000, 3.823567
10023000, 0.000000, 3.923567
10023001, 0.030000, 3.923567
10023002, 0.060000, 3.923567
10023003, 0.090000, 3.923567
10023004, 0.120000, 3.923567
10023005, 0.150000, 3.923567
10024000, 0.000000, 4.023567
10024001, 0.030000, 4.023567
10024002, 0.060000, 4.023567
10024003, 0.090000, 4.023567
10024004, 0.120000, 4.023567
10024005, 0.150000, 4.023567
10025000, 0.000000, 4.050000
10025001, 0.030000, 4.050000
10025002, 0.060000, 4.050000
10025003, 0.090000, 4.050000
10025004, 0.120000, 4.050000
10025005, 0.150000, 4.050000
9999, 0.0, 4.050000
*NSET, NSET=NREF
9999,
*ELEMENT, TYPE=CAX4R
4081, 10000000, 10000001, 10001001, 10001000
4082, 10000001, 10000002, 10001002, 10001001
4083, 10000002, 10000003, 10001003, 10001002
4084, 10000003, 10000004, 10001004, 10001003
4085, 10000004, 10000005, 10001005, 10001004
4086, 10001000, 10001001, 10002001, 10002000
4087, 10001001, 10001002, 10002002, 10002001
4088, 10001002, 10001003, 10002003, 10002002
4089, 10001003, 10001004, 10002004, 10002003
4090, 10001004, 10001005, 10002005, 10002004
4091, 10002000, 10002001, 10003001, 10003000
4092, 10002001, 10002002, 10003002, 10003001
4093, 10002002, 10002003, 10003003, 10003002
4094, 10002003, 10002004, 10003004, 10003003
4095, 10002004, 10002005, 10003005, 10003004
4096, 10003000, 10003001, 10004001, 10004000
4097, 10003001, 10003002, 10004002, 10004001
4098, 10003002, 10003003, 10004003, 10004002
4099, 10003003, 10003004, 10004004, 10004003
4100, 10003004, 10003005, 10004005, 10004004
4101, 10004000, 10004001, 10005001, 10005000
4102, 10004001, 10004002, 10005002, 10005001
4103, 10004002, 10004003, 10005003, 10005002
4104, 10004003, 10004004, 10005004, 10005003
4105, 10004004, 10004005, 10005005, 10005004
4106, 10005000, 10005001, 10006001, 10006000
4107, 10005001, 10005002, 10006002, 10006001
4108, 10005002, 10005003, 10006003, 10006002
4109, 10005003, 10005004, 10006004, 10006003
4110, 10005004, 10005005, 10006005, 10006004
4111, 10006000, 10006001, 10007001, 10007000
4112, 10006001, 10006002, 10007002, 10007001
4113, 10006002, 10006003, 10007003, 10007002
4114, 10006003, 10006004, 10007004, 10007003
4115, 10006004, 10006005, 10007005, 10007004
4116, 10007000, 10007001, 10008001, 10008000
4117, 10007001, 10007002, 10008002, 10008001
4118, 10007002, 10007003, 10008003, 10008002
4119, 10007003, 10007004, 10008004, 10008003
4120, 10007004, 10007005, 10008005, 10008004
4121, 10008000, 10008001, 10009001, 10009000
4122, 10008001, 10008002, 10009002, 10009001
4123, 10008002, 10008003, 10009003, 10009002
4124, 10008003, 10008004, 10009004, 10009003
4125, 10008004, 10008005, 10009005, 10009004
4126, 10009000, 10009001, 10010001, 10010000
4127, 10009001, 10009002, 10010002, 10010001
4128, 10009002, 10009003, 10010003, 10010002
4129, 10009003, 10009004, 10010004, 10010003
4130, 10009004, 10009005, 10010005, 10010004
4131, 10010000, 10010001, 10011001, 10011000
4132, 10010001, 10010002, 10011002, 10011001
4133, 10010002, 10010003, 10011003, 10011002
4134, 10010003, 10010004, 10011004, 10011003
4135, 10010004, 10010005, 10011005, 10011004
4136, 10011000, 10011001, 10012001, 10012000
4137, 10011001, 10011002, 10012002, 10012001
4138, 10011002, 10011003, 10012003, 10012002
4139, 10011003, 10011004, 10012004, 10012003
4140, 10011004, 10011005, 10012005, 10012004
4141, 10012000, 10012001, 10013001, 10013000
4142, 10012001, 10012002, 10013002, 10013001
4143, 10012002, 10012003, 10013003, 10013002
4144, 10012003, 10012004, 10013004, 10013003
4145, 10012004, 10012005, 10013005, 10013004
4146, 10013000, 10013001, 10014001, 10014000
4147, 10013001, 10013002, 10014002, 10014001
4148, 10013002, 10013003, 10014003, 10014002
4149, 10013003, 10013004, 10014004, 10014003
4150, 10013004, 10013005, 10014005, 10014004
4151, 10014000, 10014001, 10015001, 10015000
4152, 10014001, 10014002, 10015002, 10015001
4153, 10014002, 10014003, 10015003, 10015002
4154, 10014003, 10014004, 10015004, 10015003
4155, 10014004, 10014005, 10015005, 10015004
4156, 10015000, 10015001, 10016001, 10016000
4157, 10015001, 10015002, 10016002, 10016001
4158, 10015002, 10015003, 10016003, 10016002
4159, 10015003, 10015004, 10016004, 10016003
4160, 10015004, 10015005, 10016005, 10016004
4161, 10016000, 10016001, 10017001, 10017000
4162, 10016001, 10016002, 10017002, 10017001
4163, 10016002, 10016003, 10017003, 10017002
4164, 10016003, 10016004, 10017004, 10017003
4165, 10016004, 10016005, 10017005, 10017004
4166, 10017000, 10017001, 10018001, 10018000
4167, 10017001, 10017002, 10018002, 10018001
4168, 10017002, 10017003, 10018003, 10018002
4169, 10017003, 10017004, 10018004, 10018003
4170, 10017004, 10017005, 10018005, 10018004
4171, 10018000, 10018001, 10019001, 10019000
4172, 10018001, 10018002, 10019002, 10019001
4173, 10018002, 10018003, 10019003, 10019002
4174, 10018003, 10018004, 10019004, 10019003
4175, 10018004, 10018005, 10019005, 10019004
4176, 10019000, 10019001, 10020001, 10020000
4177, 10019001, 10019002, 10020002, 10020001
4178, 10019002, 10019003, 10020003, 10020002
4179, 10019003, 10019004, 10020004, 10020003
4180, 10019004, 10019005, 10020005, 10020004
4181, 10020000, 10020001, 10021001, 10021000
4182, 10020001, 10020002, 10021002, 10021001
4183, 10020002, 10020003, 10021003, 10021002
4184, 10020003, 10020004, 10021004, 10021003
4185, 10020004, 10020005, 10021005, 10021004
4186, 10021000, 10021001, 10022001, 10022000
4187, 10021001, 10021002, 10022002, 10022001
4188, 10021002, 10021003, 10022003, 10022002
4189, 10021003, 10021004, 10022004, 10022003
4190, 10021004, 10021005, 10022005, 10022004
4191, 10022000, 10022001, 10023001, 10023000
4192, 10022001, 10022002, 10023002, 10023001
4193, 10022002, 10022003, 10023003, 10023002
4194, 10022003, 10022004, 10023004, 10023003
4195, 10022004, 10022005, 10023005, 10023004
4196, 10023000, 10023001, 10024001, 10024000
4197, 10023001, 10023002, 10024002, 10024001
4198, 10023002, 10023003, 10024003, 10024002
4199, 10023003, 10023004, 10024004, 10024003
4200, 10023004, 10023005, 10024005, 10024004
4201, 10024000, 10024001, 10025001, 10025000
4202, 10024001, 10024002, 10025002, 10025001
4203, 10024002, 10024003, 10025003, 10025002
4204, 10024003, 10024004, 10025004, 10025003
4205, 10024004, 10024005, 10025005, 10025004
*ELSET, ELSET=NEEDLE_EL, GENERATE
4081, 4205, 1
*SURFACE, TYPE=ELEMENT, NAME=NEEDLE
NEEDLE_EL,
*RIGID BODY, ELSET=NEEDLE_EL, REF NODE=NREF
*MATERIAL, NAME=NEEDLE_MAT
*DENSITY
7.9e-9,
*ELASTIC
200000.0, 0.3
*SOLID SECTION, ELSET=NEEDLE_EL, MATERIAL=NEEDLE_MAT
*MATERIAL, NAME=MAT_EPIDERMIS
*DENSITY
1.3e-9,
*USER MATERIAL, CONSTANTS=5
0.752, 8.68, 0.103, 5.8, 0.084
*DEPVAR, DELETE=1
4
1, DELFLAG, deletion flag
2, SVM, von Mises stress
3, EEQ, equivalent log strain
4, JVOL, relative volume
*MATERIAL, NAME=MAT_DERMIS
*DENSITY
1.2e-9,
*USER MATERIAL, CONSTANTS=5
7.33, 57.89, 0.103, 15.0, 0.45
*DEPVAR, DELETE=1
4
1, DELFLAG, deletion flag
2, SVM, von Mises stress
3, EEQ, equivalent log strain
4, JVOL, relative volume
*SECTION CONTROLS, NAME=SKINCTRL, HOURGLASS=ENHANCED
*SOLID SECTION, ELSET=EPIDERMIS, MATERIAL=MAT_EPIDERMIS, CONTROLS=SKINCTRL
*SOLID SECTION, ELSET=DERMIS, MATERIAL=MAT_DERMIS, CONTROLS=SKINCTRL
*SURFACE INTERACTION, NAME=IPROP
*FRICTION
0.42,
*SURFACE BEHAVIOR, PRESSURE-OVERCLOSURE=HARD
*BOUNDARY
NBOT, 1, 2
NRIGHT, 1, 2
NAXIS, 1, 1
NREF, 1, 1
NREF, 6, 6
*AMPLITUDE, NAME=PUSH, DEFINITION=SMOOTH STEP
0.0, 0.0, 0.04, 1.0
*STEP, NAME=INSERTION
*DYNAMIC, EXPLICIT
, 0.04
*FIXED MASS SCALING, DT=2.0e-7, TYPE=BELOW MIN
*BOUNDARY, AMPLITUDE=PUSH
NREF, 2, 2, -1.0000
*CONTACT
*CONTACT INCLUSIONS, ALL EXTERIOR
*CONTACT INCLUSIONS
NEEDLE, SKIN_SURF
*CONTACT PROPERTY ASSIGNMENT
 ,  , IPROP
*OUTPUT, FIELD, NUMBER INTERVAL=30
*ELEMENT OUTPUT, ELSET=SKIN_ALL
S, LE, SDV, STATUS
*NODE OUTPUT
U, V
*OUTPUT, HISTORY, TIME INTERVAL=1.0e-4
*NODE OUTPUT, NSET=NREF
U2, V2, RF2
*ENERGY OUTPUT
ALLIE, ALLKE, ALLSE, ALLWK
*END STEP
